       4
GEOMETRY FILE / created by CPMD
  N      6.607359572507      6.614715135738      6.989425518747              0.000000000000      0.000000000000      0.000000000000
  H      7.561571919128      6.614715135738      6.621118179989              0.000000000000      0.000000000000      0.000000000000
  H      6.141524873787      7.436791932807      6.599686502949              0.000000000000      0.000000000000      0.000000000000
  H      6.141524873787      5.792638338668      6.599686502949              0.000000000000      0.000000000000      0.000000000000
