       4
GEOMETRY FILE / created by CPMD
  N      6.661240893250      6.665243243599      6.915876543768              0.000030818525     -0.000057248030     -0.000025550636
  H      6.882443425082      5.900026994300      7.606536293549             -0.000448964085      0.000324296159      0.000310153719
  H      6.521287166949      6.178886282163      5.990789323177             -0.000227114179     -0.000346165852      0.000370102742
  H      5.747883341408      7.116448886122      7.174338187412              0.000282022208      0.000812219711     -0.000348669313
