           4
 STEP:           1
 N      6.607250      6.614878      6.989540
 H      7.562975      6.612057      6.621055
 H      6.142344      7.437917      6.596730
 H      6.140828      5.791904      6.601109
           4
 STEP:           6
 N      6.606733      6.615685      6.990070
 H      7.569718      6.599205      6.620769
 H      6.146305      7.443342      6.582403
 H      6.137420      5.788315      6.607964
           4
 STEP:          11
 N      6.606263      6.616521      6.990512
 H      7.575610      6.587297      6.620638
 H      6.150133      7.448093      6.569129
 H      6.134250      5.785046      6.614340
           4
 STEP:          16
 N      6.605790      6.617421      6.990959
 H      7.580733      6.575913      6.620718
 H      6.154061      7.452138      6.556504
 H      6.131199      5.781983      6.620511
           4
 STEP:          21
 N      6.605330      6.618302      6.991423
 H      7.585276      6.564645      6.621022
 H      6.158259      7.455530      6.544121
 H      6.128102      5.778936      6.626698
           4
 STEP:          26
 N      6.604913      6.619167      6.991847
 H      7.589158      6.553366      6.621598
 H      6.162841      7.458213      6.531869
 H      6.124910      5.775915      6.632979
           4
 STEP:          31
 N      6.604545      6.620067      6.992186
 H      7.592133      6.542118      6.622511
 H      6.167936      7.460010      6.519833
 H      6.121667      5.773138      6.639373
           4
 STEP:          36
 N      6.604222      6.621015      6.992445
 H      7.594022      6.530971      6.623814
 H      6.173648      7.460738      6.508140
 H      6.118428      5.770882      6.645911
           4
 STEP:          41
 N      6.603936      6.622008      6.992649
 H      7.594756      6.519984      6.625534
 H      6.179979      7.460342      6.496861
 H      6.115218      5.769307      6.652623
           4
 STEP:          46
 N      6.603690      6.623029      6.992796
 H      7.594346      6.509211      6.627671
 H      6.186869      7.458830      6.486020
 H      6.112028      5.768397      6.659482
           4
 STEP:          51
 N      6.603487      6.624067      6.992872
 H      7.592817      6.498710      6.630208
 H      6.194265      7.456192      6.475637
 H      6.108844      5.768067      6.666439
           4
 STEP:          56
 N      6.603327      6.625120      6.992869
 H      7.590172      6.488548      6.633141
 H      6.202131      7.452393      6.465749
 H      6.105685      5.768278      6.673468
           4
 STEP:          61
 N      6.603209      6.626182      6.992794
 H      7.586427      6.478780      6.636476
 H      6.210426      7.447422      6.456393
 H      6.102581      5.769037      6.680578
           4
 STEP:          66
 N      6.603132      6.627250      6.992655
 H      7.581671      6.469436      6.640202
 H      6.219087      7.441347      6.447560
 H      6.099537      5.770342      6.687779
           4
 STEP:          71
 N      6.603093      6.628321      6.992458
 H      7.576076      6.460507      6.644274
 H      6.228034      7.434320      6.439184
 H      6.096516      5.772159      6.695068
           4
 STEP:          76
 N      6.603089      6.629386      6.992208
 H      7.569866      6.451961      6.648630
 H      6.237182      7.426535      6.431160
 H      6.093450      5.774440      6.702432
           4
 STEP:          81
 N      6.603114      6.630436      6.991912
 H      7.563281      6.443747      6.653202
 H      6.246454      7.418201      6.423371
 H      6.090263      5.777146      6.709865
           4
 STEP:          86
 N      6.603161      6.631463      6.991585
 H      7.556571      6.435806      6.657932
 H      6.255770      7.409529      6.415700
 H      6.086880      5.780235      6.717366
           4
 STEP:          91
 N      6.603222      6.632458      6.991245
 H      7.550001      6.428074      6.662760
 H      6.265036      7.400746      6.408016
 H      6.083227      5.783644      6.724937
           4
 STEP:          96
 N      6.603291      6.633415      6.990909
 H      7.543848      6.420480      6.667624
 H      6.274149      7.392085      6.400176
 H      6.079238      5.787290      6.732573
           4
 STEP:         101
 N      6.603358      6.634330      6.990589
 H      7.538372      6.412956      6.672467
 H      6.282998      7.383766      6.392036
 H      6.074866      5.791081      6.740266
           4
 STEP:         106
 N      6.603419      6.635200      6.990299
 H      7.533789      6.405444      6.677241
 H      6.291486      7.375972      6.383470
 H      6.070084      5.794937      6.748010
           4
 STEP:         111
 N      6.603467      6.636025      6.990048
 H      7.530264      6.397898      6.681915
 H      6.299531      7.368841      6.374379
 H      6.064884      5.798789      6.755800
           4
 STEP:         116
 N      6.603499      6.636806      6.989846
 H      7.527913      6.390282      6.686468
 H      6.307076      7.362471      6.364692
 H      6.059256      5.802576      6.763635
           4
 STEP:         121
 N      6.603514      6.637544      6.989697
 H      7.526802      6.382566      6.690890
 H      6.314094      7.356916      6.354367
 H      6.053193      5.806243      6.771508
           4
 STEP:         126
 N      6.603511      6.638245      6.989601
 H      7.526935      6.374730      6.695181
 H      6.320582      7.352183      6.343396
 H      6.046686      5.809749      6.779414
           4
 STEP:         131
 N      6.603493      6.638910      6.989554
 H      7.528256      6.366761      6.699359
 H      6.326569      7.348236      6.331806
 H      6.039734      5.813072      6.787350
           4
 STEP:         136
 N      6.603463      6.639548      6.989549
 H      7.530651      6.358658      6.703454
 H      6.332104      7.344997      6.319666
 H      6.032343      5.816211      6.795315
           4
 STEP:         141
 N      6.603426      6.640164      6.989576
 H      7.533961      6.350426      6.707507
 H      6.337251      7.342354      6.307072
 H      6.024537      5.819180      6.803307
           4
 STEP:         146
 N      6.603389      6.640763      6.989621
 H      7.537992      6.342084      6.711566
 H      6.342084      7.340171      6.294150
 H      6.016353      5.822005      6.811323
           4
 STEP:         151
 N      6.603356      6.641351      6.989671
 H      7.542521      6.333664      6.715680
 H      6.346678      7.338286      6.281045
 H      6.007848      5.824725      6.819358
           4
 STEP:         156
 N      6.603336      6.641935      6.989709
 H      7.547308      6.325210      6.719898
 H      6.351113      7.336523      6.267926
 H      5.999096      5.827392      6.827408
           4
 STEP:         161
 N      6.603333      6.642519      6.989718
 H      7.552102      6.316779      6.724267
 H      6.355461      7.334696      6.254968
 H      5.990184      5.830068      6.835469
           4
 STEP:         166
 N      6.603355      6.643107      6.989684
 H      7.556656      6.308434      6.728831
 H      6.359791      7.332622      6.242349
 H      5.981212      5.832818      6.843538
           4
 STEP:         171
 N      6.603406      6.643703      6.989592
 H      7.560733      6.300238      6.733627
 H      6.364163      7.330133      6.230242
 H      5.972282      5.835713      6.851613
           4
 STEP:         176
 N      6.603490      6.644309      6.989430
 H      7.564119      6.292250      6.738683
 H      6.368628      7.327075      6.218799
 H      5.963496      5.838821      6.859695
           4
 STEP:         181
 N      6.603610      6.644926      6.989188
 H      7.566626      6.284518      6.744024
 H      6.373229      7.323322      6.208157
 H      5.954950      5.842207      6.867784
           4
 STEP:         186
 N      6.603770      6.645554      6.988858
 H      7.568101      6.277082      6.749662
 H      6.377996      7.318780      6.198422
 H      5.946732      5.845928      6.875880
           4
 STEP:         191
 N      6.603969      6.646194      6.988437
 H      7.568434      6.269965      6.755607
 H      6.382951      7.313386      6.189675
 H      5.938917      5.850033      6.883985
           4
 STEP:         196
 N      6.604206      6.646843      6.987921
 H      7.567558      6.263177      6.761858
 H      6.388107      7.307115      6.181963
 H      5.931563      5.854556      6.892098
           4
 STEP:         201
 N      6.604480      6.647500      6.987312
 H      7.565452      6.256714      6.768406
 H      6.393463      7.299976      6.175299
 H      5.924715      5.859520      6.900217
           4
 STEP:         206
 N      6.604787      6.648163      6.986611
 H      7.562138      6.250561      6.775238
 H      6.399014      7.292009      6.169663
 H      5.918405      5.864934      6.908341
           4
 STEP:         211
 N      6.605123      6.648831      6.985824
 H      7.557680      6.244689      6.782334
 H      6.404741      7.283286      6.165001
 H      5.912647      5.870792      6.916468
           4
 STEP:         216
 N      6.605482      6.649499      6.984959
 H      7.552187      6.239055      6.789666
 H      6.410620      7.273904      6.161224
 H      5.907444      5.877075      6.924598
           4
 STEP:         221
 N      6.605858      6.650168      6.984025
 H      7.545805      6.233605      6.797206
 H      6.416614      7.263984      6.158205
 H      5.902781      5.883750      6.932731
           4
 STEP:         226
 N      6.606242      6.650834      6.983036
 H      7.538712      6.228269      6.804921
 H      6.422683      7.253669      6.155791
 H      5.898626      5.890769      6.940871
           4
 STEP:         231
 N      6.606627      6.651497      6.982004
 H      7.531118      6.222965      6.812779
 H      6.428779      7.243118      6.153794
 H      5.894936      5.898071      6.949022
           4
 STEP:         236
 N      6.607005      6.652157      6.980947
 H      7.523252      6.217598      6.820745
 H      6.434851      7.232499      6.152008
 H      5.891647      5.905588      6.957191
           4
 STEP:         241
 N      6.607368      6.652812      6.979881
 H      7.515357      6.212069      6.828791
 H      6.440851      7.221988      6.150208
 H      5.888683      5.913240      6.965387
           4
 STEP:         246
 N      6.607709      6.653465      6.978823
 H      7.507675      6.206274      6.836889
 H      6.446730      7.211754      6.148163
 H      5.885955      5.920945      6.973618
           4
 STEP:         251
 N      6.608021      6.654116      6.977790
 H      7.500437      6.200110      6.845016
 H      6.452448      7.201958      6.145649
 H      5.883362      5.928619      6.981896
           4
 STEP:         256
 N      6.608300      6.654767      6.976795
 H      7.493846      6.193489      6.853155
 H      6.457971      7.192734      6.142460
 H      5.880799      5.936180      6.990231
           4
 STEP:         261
 N      6.608543      6.655420      6.975852
 H      7.488069      6.186337      6.861293
 H      6.463278      7.184187      6.138426
 H      5.878162      5.943555      6.998632
           4
 STEP:         266
 N      6.608748      6.656078      6.974970
 H      7.483220      6.178603      6.869421
 H      6.468357      7.176382      6.133421
 H      5.875359      5.950683      7.007108
           4
 STEP:         271
 N      6.608918      6.656742      6.974153
 H      7.479363      6.170272      6.877534
 H      6.473210      7.169343      6.127374
 H      5.872299      5.957515      7.015665
           4
 STEP:         276
 N      6.609057      6.657416      6.973404
 H      7.476499      6.161354      6.885630
 H      6.477849      7.163049      6.120273
 H      5.868905      5.964021      7.024303
           4
 STEP:         281
 N      6.609170      6.658102      6.972718
 H      7.474571      6.151883      6.893708
 H      6.482292      7.157444      6.112167
 H      5.865130      5.970188      7.033021
           4
 STEP:         286
 N      6.609260      6.658802      6.972092
 H      7.473470      6.141937      6.901768
 H      6.486565      7.152423      6.103166
 H      5.860965      5.976015      7.041801
           4
 STEP:         291
 N      6.609340      6.659515      6.971522
 H      7.473044      6.131619      6.909799
 H      6.490702      7.147852      6.093417
 H      5.856416      5.981534      7.050627
           4
 STEP:         296
 N      6.609421      6.660241      6.970993
 H      7.473107      6.121049      6.917797
 H      6.494746      7.143583      6.083106
 H      5.851501      5.986804      7.059482
           4
 STEP:         301
 N      6.609512      6.660976      6.970488
 H      7.473451      6.110368      6.925751
 H      6.498729      7.139460      6.072454
 H      5.846259      5.991885      7.068332
           4
 STEP:         306
 N      6.609618      6.661717      6.969993
 H      7.473870      6.099728      6.933647
 H      6.502679      7.135323      6.061705
 H      5.840751      5.996840      7.077133
           4
 STEP:         311
 N      6.609746      6.662462      6.969502
 H      7.474158      6.089280      6.941471
 H      6.506629      7.131016      6.051092
 H      5.835054      6.001750      7.085852
           4
 STEP:         316
 N      6.609903      6.663206      6.969005
 H      7.474101      6.079162      6.949204
 H      6.510615      7.126382      6.040830
 H      5.829247      6.006715      7.094458
           4
 STEP:         321
 N      6.610102      6.663943      6.968495
 H      7.473494      6.069509      6.956818
 H      6.514657      7.121279      6.031125
 H      5.823415      6.011828      7.102906
           4
 STEP:         326
 N      6.610345      6.664663      6.967960
 H      7.472171      6.060443      6.964285
 H      6.518759      7.115592      6.022166
 H      5.817654      6.017162      7.111145
           4
 STEP:         331
 N      6.610630      6.665356      6.967392
 H      7.470022      6.052067      6.971576
 H      6.522918      7.109238      6.014118
 H      5.812060      6.022781      7.119130
           4
 STEP:         336
 N      6.610957      6.666018      6.966785
 H      7.466979      6.044461      6.978668
 H      6.527134      7.102155      6.007102
 H      5.806702      6.028748      7.126823
           4
 STEP:         341
 N      6.611327      6.666646      6.966139
 H      7.462999      6.037678      6.985541
 H      6.531409      7.094300      6.001191
 H      5.801629      6.035125      7.134195
           4
 STEP:         346
 N      6.611739      6.667238      6.965456
 H      7.458060      6.031751      6.992178
 H      6.535737      7.085657      5.996413
 H      5.796882      6.041963      7.141221
           4
 STEP:         351
 N      6.612189      6.667792      6.964740
 H      7.452175      6.026676      6.998567
 H      6.540105      7.076230      5.992756
 H      5.792500      6.049297      7.147881
           4
 STEP:         356
 N      6.612672      6.668303      6.963994
 H      7.445392      6.022419      7.004698
 H      6.544491      7.066050      5.990180
 H      5.788515      6.057141      7.154156
           4
 STEP:         361
 N      6.613181      6.668771      6.963225
 H      7.437803      6.018919      7.010572
 H      6.548872      7.055166      5.988611
 H      5.784946      6.065502      7.160036
           4
 STEP:         366
 N      6.613709      6.669194      6.962438
 H      7.429534      6.016098      7.016198
 H      6.553225      7.043645      5.987936
 H      5.781796      6.074380      7.165517
           4
 STEP:         371
 N      6.614251      6.669575      6.961644
 H      7.420739      6.013863      7.021592
 H      6.557526      7.031573      5.988000
 H      5.779048      6.083771      7.170601
           4
 STEP:         376
 N      6.614801      6.669919      6.960854
 H      7.411595      6.012100      7.026779
 H      6.561753      7.019050      5.988610
 H      5.776660      6.093662      7.175298
           4
 STEP:         381
 N      6.615351      6.670231      6.960079
 H      7.402296      6.010679      7.031788
 H      6.565884      7.006190      5.989551
 H      5.774566      6.104021      7.179629
           4
 STEP:         386
 N      6.615895      6.670516      6.959331
 H      7.393043      6.009450      7.036650
 H      6.569896      6.993107      5.990587
 H      5.772682      6.114804      7.183621
           4
 STEP:         391
 N      6.616423      6.670784      6.958623
 H      7.384036      6.008248      7.041411
 H      6.573763      6.979919      5.991481
 H      5.770916      6.125944      7.187314
           4
 STEP:         396
 N      6.616931      6.671040      6.957969
 H      7.375476      6.006902      7.046119
 H      6.577465      6.966732      5.991997
 H      5.769171      6.137375      7.190744
           4
 STEP:         401
 N      6.617413      6.671295      6.957377
 H      7.367537      6.005253      7.050818
 H      6.580987      6.953637      5.991913
 H      5.767341      6.149032      7.193951
           4
 STEP:         406
 N      6.617866      6.671559      6.956854
 H      7.360376      6.003147      7.055561
 H      6.584323      6.940701      5.991032
 H      5.765327      6.160848      7.196981
           4
 STEP:         411
 N      6.618289      6.671839      6.956402
 H      7.354124      6.000450      7.060403
 H      6.587463      6.927986      5.989194
 H      5.763035      6.172751      7.199883
           4
 STEP:         416
 N      6.618683      6.672143      6.956026
 H      7.348867      5.997070      7.065384
 H      6.590398      6.915548      5.986285
 H      5.760369      6.184684      7.202702
           4
 STEP:         421
 N      6.619049      6.672480      6.955724
 H      7.344641      5.992964      7.070537
 H      6.593133      6.903402      5.982242
 H      5.757241      6.196597      7.205476
           4
 STEP:         426
 N      6.619398      6.672853      6.955484
 H      7.341426      5.988127      7.075891
 H      6.595676      6.891530      5.977082
 H      5.753587      6.208443      7.208236
           4
 STEP:         431
 N      6.619736      6.673265      6.955297
 H      7.339148      5.982598      7.081449
 H      6.598025      6.879909      5.970889
 H      5.749373      6.220185      7.211006
           4
 STEP:         436
 N      6.620072      6.673712      6.955157
 H      7.337680      5.976448      7.087203
 H      6.600169      6.868529      5.963798
 H      5.744593      6.231785      7.213813
           4
 STEP:         441
 N      6.620412      6.674190      6.955055
 H      7.336860      5.969775      7.093145
 H      6.602105      6.857362      5.955989
 H      5.739271      6.243225      7.216670
           4
 STEP:         446
 N      6.620768      6.674693      6.954974
 H      7.336492      5.962707      7.099266
 H      6.603854      6.846346      5.947687
 H      5.733456      6.254512      7.219569
           4
 STEP:         451
 N      6.621151      6.675213      6.954892
 H      7.336368      5.955401      7.105543
 H      6.605446      6.835408      5.939155
 H      5.727229      6.265669      7.222482
           4
 STEP:         456
 N      6.621564      6.675741      6.954792
 H      7.336273      5.948025      7.111946
 H      6.606901      6.824500      5.930678
 H      5.720696      6.276717      7.225371
           4
 STEP:         461
 N      6.622012      6.676265      6.954664
 H      7.336000      5.940749      7.118434
 H      6.608219      6.813597      5.922532
 H      5.713986      6.287669      7.228205
           4
 STEP:         466
 N      6.622498      6.676775      6.954496
 H      7.335357      5.933730      7.124966
 H      6.609388      6.802669      5.914971
 H      5.707239      6.298532      7.230967
           4
 STEP:         471
 N      6.623025      6.677260      6.954279
 H      7.334177      5.927117      7.131505
 H      6.610402      6.791683      5.908215
 H      5.700596      6.309321      7.233644
           4
 STEP:         476
 N      6.623596      6.677715      6.954001
 H      7.332321      5.921045      7.138014
 H      6.611265      6.780609      5.902452
 H      5.694197      6.320061      7.236211
           4
 STEP:         481
 N      6.624209      6.678134      6.953657
 H      7.329671      5.915632      7.144465
 H      6.611987      6.769442      5.897839
 H      5.688173      6.330784      7.238633
           4
 STEP:         486
 N      6.624861      6.678512      6.953242
 H      7.326133      5.910964      7.150841
 H      6.612579      6.758183      5.894499
 H      5.682648      6.341515      7.240873
           4
 STEP:         491
 N      6.625547      6.678844      6.952754
 H      7.321632      5.907091      7.157134
 H      6.613051      6.746838      5.892500
 H      5.677732      6.352276      7.242900
           4
 STEP:         496
 N      6.626262      6.679125      6.952194
 H      7.316119      5.904027      7.163342
 H      6.613411      6.735414      5.891857
 H      5.673519      6.363085      7.244699
           4
 STEP:         501
 N      6.627000      6.679351      6.951560
 H      7.309589      5.901761      7.169459
 H      6.613663      6.723932      5.892536
 H      5.670084      6.373948      7.246263
           4
 STEP:         506
 N      6.627755      6.679522      6.950859
 H      7.302084      5.900254      7.175487
 H      6.613802      6.712428      5.894461
 H      5.667483      6.384861      7.247595
           4
 STEP:         511
 N      6.628520      6.679641      6.950096
 H      7.293682      5.899434      7.181456
 H      6.613829      6.700952      5.897513
 H      5.665739      6.395806      7.248700
           4
 STEP:         516
 N      6.629287      6.679713      6.949279
 H      7.284491      5.899208      7.187398
 H      6.613752      6.689552      5.901531
 H      5.664848      6.406765      7.249592
           4
 STEP:         521
 N      6.630051      6.679743      6.948420
 H      7.274642      5.899468      7.193354
 H      6.613593      6.678260      5.906315
 H      5.664786      6.417732      7.250296
           4
 STEP:         526
 N      6.630810      6.679738      6.947530
 H      7.264276      5.900084      7.199382
 H      6.613363      6.667090      5.911637
 H      5.665492      6.428711      7.250846
           4
 STEP:         531
 N      6.631554      6.679711      6.946614
 H      7.253550      5.900900      7.205558
 H      6.613063      6.656054      5.917248
 H      5.666874      6.439713      7.251276
           4
 STEP:         536
 N      6.632277      6.679674      6.945680
 H      7.242638      5.901733      7.211959
 H      6.612691      6.645162      5.922883
 H      5.668816      6.450732      7.251627
           4
 STEP:         541
 N      6.632979      6.679639      6.944739
 H      7.231713      5.902406      7.218649
 H      6.612251      6.634423      5.928266
 H      5.671180      6.461746      7.251959
           4
 STEP:         546
 N      6.633658      6.679612      6.943805
 H      7.220942      5.902763      7.225683
 H      6.611749      6.623843      5.933128
 H      5.673814      6.472726      7.252343
           4
 STEP:         551
 N      6.634313      6.679605      6.942890
 H      7.210473      5.902659      7.233122
 H      6.611191      6.613422      5.937224
 H      5.676554      6.483659      7.252845
           4
 STEP:         556
 N      6.634945      6.679629      6.941997
 H      7.200424      5.901965      7.241022
 H      6.610582      6.603147      5.940351
 H      5.679235      6.494544      7.253515
           4
 STEP:         561
 N      6.635553      6.679694      6.941130
 H      7.190878      5.900577      7.249435
 H      6.609929      6.593000      5.942357
 H      5.681697      6.505391      7.254391
           4
 STEP:         566
 N      6.636144      6.679805      6.940292
 H      7.181885      5.898438      7.258389
 H      6.609249      6.582952      5.943150
 H      5.683796      6.516205      7.255507
           4
 STEP:         571
 N      6.636724      6.679963      6.939483
 H      7.173471      5.895541      7.267885
 H      6.608558      6.572980      5.942709
 H      5.685415      6.526994      7.256888
           4
 STEP:         576
 N      6.637302      6.680165      6.938698
 H      7.165638      5.891925      7.277896
 H      6.607865      6.563074      5.941066
 H      5.686469      6.537773      7.258555
           4
 STEP:         581
 N      6.637886      6.680407      6.937938
 H      7.158356      5.887667      7.288374
 H      6.607177      6.553230      5.938311
 H      5.686903      6.548557      7.260516
           4
 STEP:         586
 N      6.638483      6.680679      6.937202
 H      7.151569      5.882884      7.299242
 H      6.606492      6.543446      5.934599
 H      5.686691      6.559356      7.262758
           4
 STEP:         591
 N      6.639100      6.680970      6.936482
 H      7.145190      5.877729      7.310394
 H      6.605806      6.533711      5.930140
 H      5.685843      6.570193      7.265244
           4
 STEP:         596
 N      6.639740      6.681266      6.935767
 H      7.139106      5.872375      7.321706
 H      6.605111      6.524020      5.925195
 H      5.684414      6.581101      7.267927
           4
 STEP:         601
 N      6.640404      6.681554      6.935053
 H      7.133191      5.867006      7.333061
 H      6.604406      6.514384      5.920025
 H      5.682487      6.592102      7.270760
           4
 STEP:         606
 N      6.641093      6.681820      6.934342
 H      7.127329      5.861807      7.344347
 H      6.603693      6.504821      5.914878
 H      5.680153      6.603196      7.273689
           4
 STEP:         611
 N      6.641812      6.682048      6.933627
 H      7.121409      5.856951      7.355444
 H      6.602979      6.495347      5.910003
 H      5.677515      6.614382      7.276640
           4
 STEP:         616
 N      6.642553      6.682224      6.932901
 H      7.115337      5.852598      7.366231
 H      6.602260      6.485976      5.905664
 H      5.674700      6.625669      7.279526
           4
 STEP:         621
 N      6.643309      6.682334      6.932159
 H      7.109032      5.848889      7.376594
 H      6.601533      6.476713      5.902093
 H      5.671861      6.637079      7.282264
           4
 STEP:         626
 N      6.644073      6.682368      6.931402
 H      7.102431      5.845945      7.386444
 H      6.600798      6.467570      5.899482
 H      5.669152      6.648615      7.284780
           4
 STEP:         631
 N      6.644840      6.682323      6.930634
 H      7.095485      5.843856      7.395719
 H      6.600052      6.458563      5.897962
 H      5.666710      6.660263      7.287009
           4
 STEP:         636
 N      6.645605      6.682195      6.929858
 H      7.088167      5.842689      7.404372
 H      6.599293      6.449713      5.897611
 H      5.664658      6.672011      7.288885
           4
 STEP:         641
 N      6.646361      6.681980      6.929076
 H      7.080471      5.842485      7.412348
 H      6.598515      6.441037      5.898477
 H      5.663114      6.683862      7.290343
           4
 STEP:         646
 N      6.647101      6.681676      6.928290
 H      7.072409      5.843252      7.419598
 H      6.597697      6.432537      5.900583
 H      5.662184      6.695812      7.291329
           4
 STEP:         651
 N      6.647822      6.681285      6.927501
 H      7.064015      5.844961      7.426107
 H      6.596817      6.424214      5.903907
 H      5.661950      6.707847      7.291803
           4
 STEP:         656
 N      6.648516      6.680812      6.926719
 H      7.055343      5.847560      7.431893
 H      6.595862      6.416073      5.908377
 H      5.662470      6.719947      7.291736
           4
 STEP:         661
 N      6.649176      6.680265      6.925956
 H      7.046453      5.850962      7.436996
 H      6.594820      6.408120      5.913872
 H      5.663775      6.732097      7.291110
           4
 STEP:         666
 N      6.649800      6.679653      6.925220
 H      7.037402      5.855051      7.441480
 H      6.593688      6.400351      5.920245
 H      5.665863      6.744300      7.289921
           4
 STEP:         671
 N      6.650387      6.678988      6.924513
 H      7.028254      5.859688      7.445440
 H      6.592467      6.392732      5.927332
 H      5.668708      6.756568      7.288168
           4
 STEP:         676
 N      6.650930      6.678280      6.923840
 H      7.019090      5.864717      7.449001
 H      6.591148      6.385205      5.934941
 H      5.672259      6.768919      7.285856
           4
 STEP:         681
 N      6.651427      6.677546      6.923206
 H      7.010005      5.869966      7.452306
 H      6.589720      6.377716      5.942842
 H      5.676445      6.781369      7.283010
           4
 STEP:         686
 N      6.651879      6.676802      6.922615
 H      7.001107      5.875255      7.455493
 H      6.588189      6.370217      5.950778
 H      5.681166      6.793941      7.279678
           4
 STEP:         691
 N      6.652292      6.676068      6.922073
 H      6.992501      5.880396      7.458707
 H      6.586568      6.362658      5.958477
 H      5.686291      6.806655      7.275921
           4
 STEP:         696
 N      6.652669      6.675356      6.921578
 H      6.984286      5.885199      7.462097
 H      6.584837      6.354978      5.965682
 H      5.691678      6.819524      7.271804
           4
 STEP:         701
 N      6.653010      6.674679      6.921131
 H      6.976552      5.889497      7.465811
 H      6.582958      6.347111      5.972169
 H      5.697184      6.832547      7.267394
           4
 STEP:         706
 N      6.653323      6.674049      6.920730
 H      6.969366      5.893156      7.469975
 H      6.580902      6.339007      5.977746
 H      5.702658      6.845727      7.262771
           4
 STEP:         711
 N      6.653619      6.673475      6.920376
 H      6.962770      5.896067      7.474681
 H      6.578662      6.330645      5.982252
 H      5.707952      6.859084      7.258016
           4
 STEP:         716
 N      6.653908      6.672964      6.920073
 H      6.956768      5.898161      7.479990
 H      6.576252      6.322016      5.985588
 H      5.712939      6.872650      7.253188
           4
 STEP:         721
 N      6.654197      6.672515      6.919815
 H      6.951347      5.899410      7.485936
 H      6.573686      6.313110      5.987735
 H      5.717505      6.886465      7.248326
           4
 STEP:         726
 N      6.654494      6.672124      6.919591
 H      6.946470      5.899828      7.492531
 H      6.570968      6.303926      5.988745
 H      5.721553      6.900561      7.243460
           4
 STEP:         731
 N      6.654807      6.671780      6.919392
 H      6.942074      5.899472      7.499765
 H      6.568098      6.294485      5.988724
 H      5.725008      6.914951      7.238634
           4
 STEP:         736
 N      6.655147      6.671471      6.919210
 H      6.938071      5.898448      7.507592
 H      6.565087      6.284835      5.987822
 H      5.727830      6.929626      7.233876
           4
 STEP:         741
 N      6.655515      6.671185      6.919038
 H      6.934373      5.896898      7.515930
 H      6.561956      6.275057      5.986234
 H      5.730025      6.944566      7.229192
           4
 STEP:         746
 N      6.655912      6.670910      6.918865
 H      6.930891      5.894991      7.524671
 H      6.558728      6.265243      5.984193
 H      5.731643      6.959737      7.224575
           4
 STEP:         751
 N      6.656338      6.670631      6.918684
 H      6.927529      5.892924      7.533673
 H      6.555416      6.255477      5.981955
 H      5.732768      6.975083      7.220022
           4
 STEP:         756
 N      6.656792      6.670329      6.918489
 H      6.924180      5.890915      7.542774
 H      6.552032      6.245841      5.979778
 H      5.733526      6.990525      7.215536
           4
 STEP:         761
 N      6.657270      6.669989      6.918277
 H      6.920744      5.889175      7.551801
 H      6.548588      6.236424      5.977902
 H      5.734070      7.005967      7.211100
           4
 STEP:         766
 N      6.657770      6.669599      6.918042
 H      6.917130      5.887892      7.560595
 H      6.545099      6.227322      5.976536
 H      5.734565      7.021311      7.206675
           4
 STEP:         771
 N      6.658285      6.669153      6.917783
 H      6.913253      5.887215      7.569019
 H      6.541574      6.218629      5.975863
 H      5.735175      7.036466      7.202214
           4
 STEP:         776
 N      6.658808      6.668645      6.917501
 H      6.909036      5.887272      7.576962
 H      6.538030      6.210419      5.976026
 H      5.736053      7.051347      7.197682
           4
 STEP:         781
 N      6.659333      6.668068      6.917199
 H      6.904411      5.888167      7.584336
 H      6.534485      6.202748      5.977134
 H      5.737336      7.065863      7.193059
           4
 STEP:         786
 N      6.659855      6.667419      6.916879
 H      6.899326      5.889974      7.591083
 H      6.530961      6.195651      5.979256
 H      5.739147      7.079934      7.188331
           4
 STEP:         791
 N      6.660367      6.666698      6.916538
 H      6.893751      5.892725      7.597177
 H      6.527474      6.189142      5.982431
 H      5.741591      7.093498      7.183475
           4
 STEP:         796
 N      6.660862      6.665913      6.916178
 H      6.887671      5.896418      7.602624
 H      6.524023      6.183217      5.986664
 H      5.744766      7.106495      7.178467
