           3
 STEP:           1
 O      5.291618      5.350607      5.291966
 H      4.524561      4.746617      5.291787
 H      6.061274      4.750668      5.288692
           3
 STEP:           2
 O      5.291476      5.350714      5.292153
 H      4.526009      4.743743      5.291800
 H      6.062108      4.751800      5.285638
           3
 STEP:           3
 O      5.291337      5.350817      5.292333
 H      4.527443      4.740910      5.291812
 H      6.062927      4.752922      5.282623
           3
 STEP:           4
 O      5.291199      5.350917      5.292510
 H      4.528862      4.738121      5.291824
 H      6.063730      4.754032      5.279647
           3
 STEP:           5
 O      5.291058      5.351016      5.292689
 H      4.530273      4.735371      5.291835
 H      6.064521      4.755135      5.276702
           3
 STEP:           6
 O      5.290913      5.351116      5.292873
 H      4.531678      4.732654      5.291846
 H      6.065302      4.756233      5.273781
           3
 STEP:           7
 O      5.290766      5.351218      5.293060
 H      4.533085      4.729962      5.291858
 H      6.066077      4.757328      5.270873
           3
 STEP:           8
 O      5.290618      5.351320      5.293249
 H      4.534498      4.727290      5.291870
 H      6.066849      4.758423      5.267970
           3
 STEP:           9
 O      5.290470      5.351422      5.293437
 H      4.535921      4.724632      5.291883
 H      6.067622      4.759519      5.265065
           3
 STEP:          10
 O      5.290324      5.351523      5.293625
 H      4.537357      4.721986      5.291897
 H      6.068397      4.760620      5.262154
           3
 STEP:          11
 O      5.290179      5.351622      5.293811
 H      4.538809      4.719352      5.291912
 H      6.069173      4.761727      5.259234
           3
 STEP:          12
 O      5.290034      5.351718      5.293996
 H      4.540277      4.716729      5.291926
 H      6.069951      4.762843      5.256305
           3
 STEP:          13
 O      5.289889      5.351812      5.294180
 H      4.541763      4.714119      5.291941
 H      6.070729      4.763970      5.253367
           3
 STEP:          14
 O      5.289744      5.351904      5.294364
 H      4.543268      4.711523      5.291955
 H      6.071509      4.765110      5.250422
           3
 STEP:          15
 O      5.289599      5.351992      5.294547
 H      4.544791      4.708944      5.291969
 H      6.072292      4.766263      5.247470
           3
 STEP:          16
 O      5.289452      5.352078      5.294729
 H      4.546333      4.706384      5.291983
 H      6.073079      4.767431      5.244513
           3
 STEP:          17
 O      5.289303      5.352162      5.294912
 H      4.547893      4.703843      5.291997
 H      6.073870      4.768615      5.241554
           3
 STEP:          18
 O      5.289153      5.352243      5.295096
 H      4.549470      4.701326      5.292012
 H      6.074663      4.769817      5.238594
           3
 STEP:          19
 O      5.289001      5.352322      5.295280
 H      4.551064      4.698831      5.292028
 H      6.075460      4.771037      5.235634
           3
 STEP:          20
 O      5.288848      5.352398      5.295465
 H      4.552674      4.696362      5.292045
 H      6.076258      4.772277      5.232674
           3
 STEP:          21
 O      5.288693      5.352471      5.295650
 H      4.554300      4.693920      5.292064
 H      6.077056      4.773536      5.229715
           3
 STEP:          22
 O      5.288538      5.352542      5.295835
 H      4.555942      4.691507      5.292085
 H      6.077855      4.774816      5.226758
           3
 STEP:          23
 O      5.288382      5.352609      5.296019
 H      4.557599      4.689123      5.292107
 H      6.078651      4.776116      5.223802
           3
 STEP:          24
 O      5.288224      5.352674      5.296204
 H      4.559272      4.686772      5.292130
 H      6.079446      4.777435      5.220847
           3
 STEP:          25
 O      5.288066      5.352734      5.296389
 H      4.560961      4.684454      5.292155
 H      6.080237      4.778775      5.217895
           3
 STEP:          26
 O      5.287906      5.352792      5.296573
 H      4.562666      4.682171      5.292181
 H      6.081024      4.780136      5.214944
           3
 STEP:          27
 O      5.287746      5.352845      5.296758
 H      4.564387      4.679925      5.292210
 H      6.081807      4.781516      5.211995
           3
 STEP:          28
 O      5.287585      5.352896      5.296942
 H      4.566125      4.677717      5.292239
 H      6.082584      4.782917      5.209048
           3
 STEP:          29
 O      5.287424      5.352942      5.297126
 H      4.567878      4.675549      5.292271
 H      6.083357      4.784339      5.206103
           3
 STEP:          30
 O      5.287262      5.352984      5.297309
 H      4.569647      4.673420      5.292305
 H      6.084123      4.785782      5.203160
           3
 STEP:          31
 O      5.287099      5.353023      5.297493
 H      4.571433      4.671333      5.292341
 H      6.084883      4.787248      5.200220
           3
 STEP:          32
 O      5.286936      5.353058      5.297676
 H      4.573233      4.669287      5.292379
 H      6.085636      4.788737      5.197283
           3
 STEP:          33
 O      5.286772      5.353089      5.297859
 H      4.575049      4.667284      5.292420
 H      6.086382      4.790249      5.194348
           3
 STEP:          34
 O      5.286608      5.353115      5.298041
 H      4.576880      4.665322      5.292462
 H      6.087120      4.791786      5.191417
           3
 STEP:          35
 O      5.286444      5.353138      5.298223
 H      4.578725      4.663403      5.292507
 H      6.087852      4.793348      5.188489
           3
 STEP:          36
 O      5.286279      5.353156      5.298405
 H      4.580584      4.661525      5.292555
 H      6.088576      4.794936      5.185565
           3
 STEP:          37
 O      5.286114      5.353170      5.298587
 H      4.582455      4.659689      5.292604
 H      6.089293      4.796551      5.182644
           3
 STEP:          38
 O      5.285949      5.353180      5.298768
 H      4.584340      4.657894      5.292656
 H      6.090002      4.798193      5.179727
           3
 STEP:          39
 O      5.285783      5.353185      5.298949
 H      4.586235      4.656139      5.292711
 H      6.090704      4.799864      5.176814
           3
 STEP:          40
 O      5.285618      5.353186      5.299130
 H      4.588142      4.654424      5.292767
 H      6.091400      4.801564      5.173905
           3
 STEP:          41
 O      5.285452      5.353183      5.299310
 H      4.590058      4.652747      5.292826
 H      6.092088      4.803294      5.171000
           3
 STEP:          42
 O      5.285287      5.353175      5.299490
 H      4.591982      4.651108      5.292888
 H      6.092769      4.805055      5.168100
           3
 STEP:          43
 O      5.285121      5.353163      5.299669
 H      4.593914      4.649507      5.292952
 H      6.093443      4.806847      5.165204
           3
 STEP:          44
 O      5.284956      5.353147      5.299848
 H      4.595852      4.647941      5.293019
 H      6.094111      4.808672      5.162311
           3
 STEP:          45
 O      5.284791      5.353127      5.300027
 H      4.597795      4.646409      5.293089
 H      6.094771      4.810528      5.159424
           3
 STEP:          46
 O      5.284626      5.353102      5.300206
 H      4.599741      4.644912      5.293162
 H      6.095425      4.812418      5.156540
           3
 STEP:          47
 O      5.284461      5.353074      5.300384
 H      4.601689      4.643447      5.293238
 H      6.096072      4.814342      5.153661
           3
 STEP:          48
 O      5.284297      5.353041      5.300561
 H      4.603638      4.642013      5.293318
 H      6.096712      4.816300      5.150787
           3
 STEP:          49
 O      5.284133      5.353004      5.300738
 H      4.605586      4.640610      5.293401
 H      6.097345      4.818292      5.147917
           3
 STEP:          50
 O      5.283970      5.352963      5.300915
 H      4.607532      4.639237      5.293489
 H      6.097972      4.820318      5.145051
           3
 STEP:          51
 O      5.283807      5.352918      5.301091
 H      4.609473      4.637891      5.293580
 H      6.098591      4.822380      5.142190
           3
 STEP:          52
 O      5.283645      5.352870      5.301267
 H      4.611410      4.636573      5.293675
 H      6.099202      4.824476      5.139334
           3
 STEP:          53
 O      5.283484      5.352817      5.301442
 H      4.613339      4.635280      5.293775
 H      6.099807      4.826607      5.136483
           3
 STEP:          54
 O      5.283323      5.352761      5.301617
 H      4.615260      4.634013      5.293880
 H      6.100405      4.828772      5.133637
           3
 STEP:          55
 O      5.283164      5.352702      5.301792
 H      4.617171      4.632769      5.293989
 H      6.100995      4.830973      5.130796
           3
 STEP:          56
 O      5.283006      5.352638      5.301966
 H      4.619071      4.631548      5.294103
 H      6.101579      4.833207      5.127960
           3
 STEP:          57
 O      5.282849      5.352572      5.302140
 H      4.620957      4.630348      5.294222
 H      6.102155      4.835475      5.125129
           3
 STEP:          58
 O      5.282693      5.352502      5.302313
 H      4.622828      4.629168      5.294347
 H      6.102725      4.837778      5.122304
           3
 STEP:          59
 O      5.282539      5.352428      5.302486
 H      4.624684      4.628008      5.294476
 H      6.103288      4.840113      5.119483
           3
 STEP:          60
 O      5.282386      5.352352      5.302658
 H      4.626521      4.626865      5.294611
 H      6.103844      4.842481      5.116667
           3
 STEP:          61
 O      5.282235      5.352272      5.302829
 H      4.628339      4.625739      5.294751
 H      6.104394      4.844881      5.113857
           3
 STEP:          62
 O      5.282086      5.352189      5.302999
 H      4.630137      4.624628      5.294897
 H      6.104939      4.847314      5.111052
           3
 STEP:          63
 O      5.281938      5.352104      5.303170
 H      4.631913      4.623530      5.295048
 H      6.105477      4.849778      5.108253
           3
 STEP:          64
 O      5.281791      5.352016      5.303340
 H      4.633666      4.622445      5.295205
 H      6.106010      4.852273      5.105458
           3
 STEP:          65
 O      5.281647      5.351925      5.303510
 H      4.635395      4.621370      5.295367
 H      6.106539      4.854800      5.102670
           3
 STEP:          66
 O      5.281504      5.351831      5.303679
 H      4.637098      4.620305      5.295535
 H      6.107062      4.857357      5.099886
           3
 STEP:          67
 O      5.281363      5.351735      5.303847
 H      4.638774      4.619248      5.295709
 H      6.107582      4.859944      5.097108
           3
 STEP:          68
 O      5.281224      5.351637      5.304014
 H      4.640423      4.618196      5.295888
 H      6.108098      4.862561      5.094335
           3
 STEP:          69
 O      5.281087      5.351536      5.304181
 H      4.642043      4.617149      5.296072
 H      6.108610      4.865208      5.091567
           3
 STEP:          70
 O      5.280952      5.351433      5.304347
 H      4.643634      4.616105      5.296263
 H      6.109120      4.867885      5.088804
           3
 STEP:          71
 O      5.280819      5.351328      5.304514
 H      4.645194      4.615062      5.296458
 H      6.109627      4.870590      5.086046
           3
 STEP:          72
 O      5.280688      5.351222      5.304680
 H      4.646723      4.614019      5.296658
 H      6.110132      4.873325      5.083293
           3
 STEP:          73
 O      5.280559      5.351113      5.304845
 H      4.648220      4.612974      5.296864
 H      6.110636      4.876088      5.080545
           3
 STEP:          74
 O      5.280432      5.351003      5.305009
 H      4.649685      4.611926      5.297075
 H      6.111139      4.878878      5.077802
           3
 STEP:          75
 O      5.280308      5.350892      5.305173
 H      4.651117      4.610874      5.297290
 H      6.111641      4.881697      5.075063
           3
 STEP:          76
 O      5.280185      5.350779      5.305337
 H      4.652516      4.609816      5.297511
 H      6.112142      4.884543      5.072329
           3
 STEP:          77
 O      5.280065      5.350664      5.305500
 H      4.653882      4.608752      5.297736
 H      6.112643      4.887415      5.069600
           3
 STEP:          78
 O      5.279947      5.350548      5.305662
 H      4.655214      4.607681      5.297967
 H      6.113144      4.890314      5.066876
           3
 STEP:          79
 O      5.279831      5.350431      5.305824
 H      4.656512      4.606601      5.298202
 H      6.113645      4.893238      5.064156
           3
 STEP:          80
 O      5.279717      5.350313      5.305985
 H      4.657777      4.605514      5.298442
 H      6.114146      4.896187      5.061440
           3
 STEP:          81
 O      5.279605      5.350193      5.306145
 H      4.659008      4.604417      5.298687
 H      6.114648      4.899160      5.058728
           3
 STEP:          82
 O      5.279496      5.350073      5.306305
 H      4.660205      4.603311      5.298937
 H      6.115150      4.902157      5.056021
           3
 STEP:          83
 O      5.279388      5.349952      5.306465
 H      4.661369      4.602195      5.299193
 H      6.115652      4.905176      5.053318
           3
 STEP:          84
 O      5.279282      5.349829      5.306624
 H      4.662500      4.601069      5.299453
 H      6.116154      4.908218      5.050619
           3
 STEP:          85
 O      5.279177      5.349706      5.306783
 H      4.663599      4.599934      5.299719
 H      6.116656      4.911281      5.047923
           3
 STEP:          86
 O      5.279075      5.349583      5.306941
 H      4.664666      4.598788      5.299989
 H      6.117158      4.914366      5.045232
           3
 STEP:          87
 O      5.278974      5.349459      5.307099
 H      4.665703      4.597632      5.300264
 H      6.117659      4.917470      5.042545
           3
 STEP:          88
 O      5.278876      5.349334      5.307257
 H      4.666709      4.596466      5.300545
 H      6.118160      4.920594      5.039861
           3
 STEP:          89
 O      5.278779      5.349208      5.307414
 H      4.667686      4.595290      5.300829
 H      6.118660      4.923737      5.037181
           3
 STEP:          90
 O      5.278684      5.349082      5.307571
 H      4.668635      4.594104      5.301119
 H      6.119159      4.926898      5.034504
           3
 STEP:          91
 O      5.278590      5.348955      5.307727
 H      4.669557      4.592909      5.301413
 H      6.119658      4.930077      5.031831
           3
 STEP:          92
 O      5.278498      5.348828      5.307883
 H      4.670453      4.591705      5.301711
 H      6.120157      4.933272      5.029161
           3
 STEP:          93
 O      5.278407      5.348701      5.308039
 H      4.671325      4.590492      5.302013
 H      6.120656      4.936482      5.026494
           3
 STEP:          94
 O      5.278317      5.348573      5.308195
 H      4.672175      4.589271      5.302320
 H      6.121154      4.939708      5.023831
           3
 STEP:          95
 O      5.278229      5.348445      5.308350
 H      4.673003      4.588042      5.302630
 H      6.121651      4.942949      5.021170
           3
 STEP:          96
 O      5.278143      5.348317      5.308505
 H      4.673810      4.586806      5.302944
 H      6.122145      4.946203      5.018513
           3
 STEP:          97
 O      5.278058      5.348188      5.308660
 H      4.674599      4.585563      5.303261
 H      6.122638      4.949471      5.015857
           3
 STEP:          98
 O      5.277975      5.348058      5.308814
 H      4.675370      4.584313      5.303582
 H      6.123127      4.952752      5.013205
           3
 STEP:          99
 O      5.277894      5.347928      5.308968
 H      4.676124      4.583058      5.303907
 H      6.123612      4.956045      5.010555
           3
 STEP:         100
 O      5.277814      5.347797      5.309121
 H      4.676865      4.581798      5.304234
 H      6.124093      4.959349      5.007908
           3
 STEP:         101
 O      5.277735      5.347665      5.309274
 H      4.677592      4.580533      5.304566
 H      6.124571      4.962665      5.005264
           3
 STEP:         102
 O      5.277656      5.347534      5.309427
 H      4.678309      4.579265      5.304900
 H      6.125044      4.965990      5.002623
           3
 STEP:         103
 O      5.277578      5.347402      5.309580
 H      4.679018      4.577993      5.305237
 H      6.125514      4.969325      4.999985
           3
 STEP:         104
 O      5.277501      5.347270      5.309732
 H      4.679718      4.576720      5.305576
 H      6.125978      4.972667      4.997351
           3
 STEP:         105
 O      5.277424      5.347137      5.309885
 H      4.680413      4.575446      5.305916
 H      6.126438      4.976018      4.994722
           3
 STEP:         106
 O      5.277347      5.347004      5.310037
 H      4.681104      4.574173      5.306257
 H      6.126891      4.979374      4.992096
           3
 STEP:         107
 O      5.277272      5.346870      5.310190
 H      4.681791      4.572901      5.306599
 H      6.127337      4.982737      4.989475
           3
 STEP:         108
 O      5.277197      5.346735      5.310342
 H      4.682477      4.571632      5.306941
 H      6.127774      4.986104      4.986857
           3
 STEP:         109
 O      5.277123      5.346600      5.310494
 H      4.683163      4.570368      5.307284
 H      6.128202      4.989477      4.984244
           3
 STEP:         110
 O      5.277049      5.346464      5.310647
 H      4.683850      4.569108      5.307628
 H      6.128618      4.992854      4.981635
           3
 STEP:         111
 O      5.276976      5.346328      5.310799
 H      4.684541      4.567854      5.307972
 H      6.129024      4.996235      4.979030
           3
 STEP:         112
 O      5.276902      5.346191      5.310951
 H      4.685238      4.566607      5.308318
 H      6.129418      4.999619      4.976428
           3
 STEP:         113
 O      5.276829      5.346053      5.311103
 H      4.685943      4.565367      5.308663
 H      6.129801      5.003007      4.973830
           3
 STEP:         114
 O      5.276757      5.345915      5.311255
 H      4.686659      4.564135      5.309008
 H      6.130171      5.006398      4.971235
           3
 STEP:         115
 O      5.276684      5.345776      5.311406
 H      4.687386      4.562911      5.309353
 H      6.130527      5.009791      4.968643
           3
 STEP:         116
 O      5.276612      5.345637      5.311558
 H      4.688128      4.561697      5.309695
 H      6.130870      5.013186      4.966055
           3
 STEP:         117
 O      5.276540      5.345497      5.311709
 H      4.688886      4.560493      5.310035
 H      6.131196      5.016582      4.963471
           3
 STEP:         118
 O      5.276468      5.345356      5.311859
 H      4.689662      4.559301      5.310372
 H      6.131507      5.019979      4.960892
           3
 STEP:         119
 O      5.276397      5.345214      5.312010
 H      4.690458      4.558121      5.310706
 H      6.131799      5.023377      4.958319
           3
 STEP:         120
 O      5.276325      5.345071      5.312160
 H      4.691274      4.556955      5.311036
 H      6.132073      5.026773      4.955752
           3
 STEP:         121
 O      5.276254      5.344928      5.312311
 H      4.692111      4.555802      5.311362
 H      6.132328      5.030168      4.953193
           3
 STEP:         122
 O      5.276182      5.344784      5.312461
 H      4.692969      4.554665      5.311685
 H      6.132562      5.033561      4.950641
           3
 STEP:         123
 O      5.276110      5.344640      5.312611
 H      4.693850      4.553544      5.312003
 H      6.132774      5.036951      4.948097
           3
 STEP:         124
 O      5.276038      5.344495      5.312761
 H      4.694754      4.552440      5.312318
 H      6.132963      5.040337      4.945560
           3
 STEP:         125
 O      5.275965      5.344349      5.312912
 H      4.695681      4.551353      5.312628
 H      6.133129      5.043719      4.943032
           3
 STEP:         126
 O      5.275893      5.344203      5.313062
 H      4.696632      4.550283      5.312934
 H      6.133270      5.047096      4.940510
           3
 STEP:         127
 O      5.275819      5.344057      5.313213
 H      4.697609      4.549231      5.313235
 H      6.133386      5.050467      4.937997
           3
 STEP:         128
 O      5.275746      5.343910      5.313363
 H      4.698612      4.548196      5.313531
 H      6.133475      5.053832      4.935490
           3
 STEP:         129
 O      5.275672      5.343762      5.313514
 H      4.699643      4.547179      5.313822
 H      6.133537      5.057191      4.932990
           3
 STEP:         130
 O      5.275598      5.343614      5.313664
 H      4.700704      4.546179      5.314108
 H      6.133571      5.060543      4.930498
           3
 STEP:         131
 O      5.275524      5.343465      5.313814
 H      4.701795      4.545197      5.314388
 H      6.133578      5.063887      4.928013
           3
 STEP:         132
 O      5.275450      5.343316      5.313965
 H      4.702919      4.544232      5.314661
 H      6.133556      5.067224      4.925535
           3
 STEP:         133
 O      5.275376      5.343166      5.314116
 H      4.704075      4.543284      5.314927
 H      6.133505      5.070552      4.923064
           3
 STEP:         134
 O      5.275302      5.343016      5.314267
 H      4.705265      4.542352      5.315186
 H      6.133424      5.073872      4.920601
           3
 STEP:         135
 O      5.275228      5.342865      5.314419
 H      4.706489      4.541436      5.315437
 H      6.133315      5.077183      4.918146
           3
 STEP:         136
 O      5.275154      5.342714      5.314570
 H      4.707747      4.540535      5.315680
 H      6.133175      5.080485      4.915699
           3
 STEP:         137
 O      5.275080      5.342563      5.314721
 H      4.709039      4.539649      5.315916
 H      6.133005      5.083777      4.913261
           3
 STEP:         138
 O      5.275007      5.342411      5.314873
 H      4.710365      4.538778      5.316143
 H      6.132804      5.087059      4.910832
           3
 STEP:         139
 O      5.274934      5.342260      5.315024
 H      4.711724      4.537919      5.316362
 H      6.132571      5.090331      4.908413
           3
 STEP:         140
 O      5.274861      5.342108      5.315175
 H      4.713116      4.537073      5.316573
 H      6.132305      5.093590      4.906004
           3
 STEP:         141
 O      5.274788      5.341956      5.315327
 H      4.714539      4.536239      5.316775
 H      6.132005      5.096838      4.903606
           3
 STEP:         142
 O      5.274715      5.341806      5.315478
 H      4.715993      4.535416      5.316968
 H      6.131671      5.100073      4.901218
           3
 STEP:         143
 O      5.274642      5.341655      5.315630
 H      4.717478      4.534604      5.317151
 H      6.131303      5.103295      4.898840
           3
 STEP:         144
 O      5.274568      5.341506      5.315782
 H      4.718993      4.533801      5.317323
 H      6.130899      5.106503      4.896472
           3
 STEP:         145
 O      5.274495      5.341356      5.315934
 H      4.720537      4.533007      5.317484
 H      6.130461      5.109697      4.894113
           3
 STEP:         146
 O      5.274421      5.341208      5.316086
 H      4.722110      4.532220      5.317635
 H      6.129987      5.112877      4.891765
           3
 STEP:         147
 O      5.274347      5.341060      5.316238
 H      4.723712      4.531440      5.317774
 H      6.129478      5.116041      4.889426
           3
 STEP:         148
 O      5.274274      5.340913      5.316390
 H      4.725342      4.530664      5.317902
 H      6.128933      5.119190      4.887098
           3
 STEP:         149
 O      5.274201      5.340766      5.316542
 H      4.727000      4.529891      5.318019
 H      6.128353      5.122323      4.884780
           3
 STEP:         150
 O      5.274129      5.340621      5.316695
 H      4.728685      4.529118      5.318125
 H      6.127739      5.125439      4.882474
           3
 STEP:         151
 O      5.274057      5.340476      5.316849
 H      4.730396      4.528345      5.318219
 H      6.127090      5.128538      4.880178
           3
 STEP:         152
 O      5.273986      5.340333      5.317002
 H      4.732133      4.527569      5.318302
 H      6.126407      5.131619      4.877892
           3
 STEP:         153
 O      5.273916      5.340191      5.317156
 H      4.733895      4.526790      5.318373
 H      6.125691      5.134683      4.875617
           3
 STEP:         154
 O      5.273847      5.340051      5.317309
 H      4.735681      4.526006      5.318432
 H      6.124942      5.137729      4.873352
           3
 STEP:         155
 O      5.273777      5.339912      5.317463
 H      4.737491      4.525218      5.318479
 H      6.124160      5.140758      4.871096
           3
 STEP:         156
 O      5.273709      5.339775      5.317617
 H      4.739325      4.524423      5.318515
 H      6.123347      5.143768      4.868849
           3
 STEP:         157
 O      5.273640      5.339640      5.317772
 H      4.741180      4.523621      5.318538
 H      6.122503      5.146759      4.866609
           3
 STEP:         158
 O      5.273572      5.339506      5.317926
 H      4.743058      4.522811      5.318549
 H      6.121630      5.149732      4.864377
           3
 STEP:         159
 O      5.273504      5.339375      5.318082
 H      4.744957      4.521990      5.318547
 H      6.120727      5.152686      4.862153
           3
 STEP:         160
 O      5.273437      5.339245      5.318238
 H      4.746876      4.521158      5.318533
 H      6.119796      5.155619      4.859935
           3
 STEP:         161
 O      5.273370      5.339118      5.318395
 H      4.748815      4.520312      5.318506
 H      6.118838      5.158533      4.857725
           3
 STEP:         162
 O      5.273303      5.338993      5.318553
 H      4.750773      4.519450      5.318466
 H      6.117854      5.161426      4.855521
           3
 STEP:         163
 O      5.273238      5.338871      5.318711
 H      4.752749      4.518571      5.318413
 H      6.116843      5.164298      4.853323
           3
 STEP:         164
 O      5.273173      5.338751      5.318871
 H      4.754743      4.517673      5.318346
 H      6.115808      5.167150      4.851132
           3
 STEP:         165
 O      5.273108      5.338634      5.319031
 H      4.756753      4.516754      5.318266
 H      6.114747      5.169980      4.848946
           3
 STEP:         166
 O      5.273045      5.338519      5.319192
 H      4.758779      4.515813      5.318172
 H      6.113662      5.172789      4.846765
           3
 STEP:         167
 O      5.272982      5.338407      5.319353
 H      4.760819      4.514850      5.318063
 H      6.112553      5.175577      4.844590
           3
 STEP:         168
 O      5.272920      5.338298      5.319515
 H      4.762872      4.513862      5.317941
 H      6.111420      5.178343      4.842420
           3
 STEP:         169
 O      5.272859      5.338191      5.319677
 H      4.764937      4.512851      5.317806
 H      6.110265      5.181087      4.840255
           3
 STEP:         170
 O      5.272798      5.338087      5.319839
 H      4.767013      4.511814      5.317658
 H      6.109088      5.183808      4.838095
           3
 STEP:         171
 O      5.272739      5.337987      5.320002
 H      4.769098      4.510752      5.317496
 H      6.107890      5.186508      4.835940
           3
 STEP:         172
 O      5.272679      5.337889      5.320167
 H      4.771192      4.509665      5.317322
 H      6.106670      5.189185      4.833788
           3
 STEP:         173
 O      5.272620      5.337795      5.320332
 H      4.773293      4.508551      5.317135
 H      6.105431      5.191839      4.831639
           3
 STEP:         174
 O      5.272561      5.337704      5.320498
 H      4.775401      4.507410      5.316935
 H      6.104171      5.194472      4.829493
           3
 STEP:         175
 O      5.272503      5.337617      5.320665
 H      4.777514      4.506241      5.316721
 H      6.102893      5.197083      4.827347
           3
 STEP:         176
 O      5.272445      5.337533      5.320833
 H      4.779634      4.505044      5.316495
 H      6.101597      5.199673      4.825202
           3
 STEP:         177
 O      5.272388      5.337452      5.321001
 H      4.781758      4.503816      5.316254
 H      6.100283      5.202240      4.823058
           3
 STEP:         178
 O      5.272331      5.337374      5.321170
 H      4.783886      4.502558      5.316000
 H      6.098953      5.204786      4.820913
           3
 STEP:         179
 O      5.272274      5.337300      5.321340
 H      4.786019      4.501269      5.315731
 H      6.097608      5.207310      4.818768
           3
 STEP:         180
 O      5.272218      5.337229      5.321510
 H      4.788156      4.499947      5.315449
 H      6.096250      5.209811      4.816622
           3
 STEP:         181
 O      5.272161      5.337162      5.321682
 H      4.790298      4.498593      5.315154
 H      6.094880      5.212291      4.814476
           3
 STEP:         182
 O      5.272106      5.337097      5.321855
 H      4.792444      4.497207      5.314845
 H      6.093499      5.214750      4.812328
           3
 STEP:         183
 O      5.272050      5.337037      5.322029
 H      4.794594      4.495787      5.314522
 H      6.092110      5.217187      4.810178
           3
 STEP:         184
 O      5.271995      5.336979      5.322204
 H      4.796750      4.494336      5.314187
 H      6.090713      5.219604      4.808027
           3
 STEP:         185
 O      5.271939      5.336924      5.322380
 H      4.798912      4.492853      5.313840
 H      6.089311      5.222001      4.805874
           3
 STEP:         186
 O      5.271884      5.336873      5.322558
 H      4.801080      4.491340      5.313480
 H      6.087903      5.224378      4.803719
           3
 STEP:         187
 O      5.271829      5.336824      5.322737
 H      4.803254      4.489797      5.313107
 H      6.086493      5.226736      4.801561
           3
 STEP:         188
 O      5.271774      5.336778      5.322916
 H      4.805436      4.488226      5.312722
 H      6.085079      5.229073      4.799401
           3
 STEP:         189
 O      5.271719      5.336735      5.323097
 H      4.807626      4.486628      5.312324
 H      6.083664      5.231391      4.797237
           3
 STEP:         190
 O      5.271663      5.336695      5.323279
 H      4.809823      4.485004      5.311914
 H      6.082246      5.233688      4.795068
           3
 STEP:         191
 O      5.271608      5.336658      5.323462
 H      4.812029      4.483356      5.311491
 H      6.080828      5.235965      4.792895
           3
 STEP:         192
 O      5.271552      5.336623      5.323647
 H      4.814243      4.481686      5.311055
 H      6.079408      5.238222      4.790715
           3
 STEP:         193
 O      5.271496      5.336592      5.323833
 H      4.816465      4.479996      5.310608
 H      6.077987      5.240458      4.788530
           3
 STEP:         194
 O      5.271440      5.336562      5.324020
 H      4.818695      4.478286      5.310149
 H      6.076565      5.242675      4.786338
           3
 STEP:         195
 O      5.271383      5.336535      5.324208
 H      4.820933      4.476560      5.309680
 H      6.075142      5.244871      4.784139
           3
 STEP:         196
 O      5.271326      5.336509      5.324396
 H      4.823179      4.474819      5.309200
 H      6.073719      5.247049      4.781933
           3
 STEP:         197
 O      5.271267      5.336486      5.324586
 H      4.825432      4.473065      5.308710
 H      6.072295      5.249209      4.779721
           3
 STEP:         198
 O      5.271208      5.336465      5.324778
 H      4.827694      4.471299      5.308211
 H      6.070871      5.251351      4.777502
           3
 STEP:         199
 O      5.271149      5.336446      5.324970
 H      4.829964      4.469524      5.307702
 H      6.069447      5.253477      4.775278
           3
 STEP:         200
 O      5.271089      5.336428      5.325164
 H      4.832243      4.467741      5.307185
 H      6.068022      5.255587      4.773047
           3
 STEP:         201
 O      5.271028      5.336412      5.325359
 H      4.834531      4.465951      5.306659
 H      6.066596      5.257682      4.770810
           3
 STEP:         202
 O      5.270966      5.336397      5.325554
 H      4.836828      4.464156      5.306125
 H      6.065168      5.259763      4.768567
           3
 STEP:         203
 O      5.270905      5.336383      5.325751
 H      4.839136      4.462357      5.305583
 H      6.063740      5.261829      4.766320
           3
 STEP:         204
 O      5.270842      5.336370      5.325949
 H      4.841454      4.460556      5.305033
 H      6.062309      5.263882      4.764068
           3
 STEP:         205
 O      5.270778      5.336359      5.326148
 H      4.843783      4.458754      5.304475
 H      6.060877      5.265921      4.761812
           3
 STEP:         206
 O      5.270714      5.336348      5.326347
 H      4.846125      4.456953      5.303908
 H      6.059443      5.267946      4.759551
           3
 STEP:         207
 O      5.270649      5.336337      5.326547
 H      4.848479      4.455154      5.303333
 H      6.058008      5.269959      4.757287
           3
 STEP:         208
 O      5.270583      5.336327      5.326748
 H      4.850846      4.453359      5.302749
 H      6.056572      5.271959      4.755020
           3
 STEP:         209
 O      5.270516      5.336317      5.326950
 H      4.853228      4.451570      5.302156
 H      6.055135      5.273947      4.752748
           3
 STEP:         210
 O      5.270448      5.336308      5.327151
 H      4.855624      4.449789      5.301555
 H      6.053697      5.275925      4.750473
           3
 STEP:         211
 O      5.270379      5.336298      5.327354
 H      4.858035      4.448016      5.300946
 H      6.052258      5.277892      4.748195
           3
 STEP:         212
 O      5.270309      5.336289      5.327557
 H      4.860462      4.446254      5.300329
 H      6.050818      5.279850      4.745915
           3
 STEP:         213
 O      5.270239      5.336280      5.327761
 H      4.862906      4.444506      5.299706
 H      6.049377      5.281799      4.743633
           3
 STEP:         214
 O      5.270169      5.336270      5.327965
 H      4.865366      4.442772      5.299078
 H      6.047935      5.283740      4.741351
           3
 STEP:         215
 O      5.270098      5.336259      5.328170
 H      4.867842      4.441056      5.298445
 H      6.046491      5.285673      4.739070
           3
 STEP:         216
 O      5.270026      5.336247      5.328375
 H      4.870336      4.439360      5.297808
 H      6.045044      5.287599      4.736790
           3
 STEP:         217
 O      5.269953      5.336234      5.328580
 H      4.872847      4.437687      5.297168
 H      6.043595      5.289517      4.734513
           3
 STEP:         218
 O      5.269879      5.336220      5.328785
 H      4.875374      4.436039      5.296525
 H      6.042143      5.291429      4.732239
           3
 STEP:         219
 O      5.269805      5.336205      5.328991
 H      4.877920      4.434417      5.295881
 H      6.040685      5.293335      4.729968
           3
 STEP:         220
 O      5.269730      5.336189      5.329198
 H      4.880483      4.432823      5.295235
 H      6.039222      5.295234      4.727701
           3
 STEP:         221
 O      5.269654      5.336172      5.329404
 H      4.883064      4.431259      5.294588
 H      6.037751      5.297128      4.725437
           3
 STEP:         222
 O      5.269578      5.336153      5.329610
 H      4.885662      4.429727      5.293938
 H      6.036271      5.299017      4.723179
           3
 STEP:         223
 O      5.269501      5.336133      5.329816
 H      4.888278      4.428228      5.293287
 H      6.034781      5.300901      4.720925
           3
 STEP:         224
 O      5.269424      5.336111      5.330022
 H      4.890911      4.426762      5.292634
 H      6.033280      5.302782      4.718678
           3
 STEP:         225
 O      5.269346      5.336087      5.330227
 H      4.893561      4.425332      5.291980
 H      6.031766      5.304659      4.716438
           3
 STEP:         226
 O      5.269269      5.336061      5.330433
 H      4.896225      4.423937      5.291324
 H      6.030240      5.306534      4.714206
           3
 STEP:         227
 O      5.269191      5.336034      5.330637
 H      4.898905      4.422578      5.290668
 H      6.028700      5.308407      4.711982
           3
 STEP:         228
 O      5.269113      5.336004      5.330841
 H      4.901598      4.421255      5.290011
 H      6.027146      5.310279      4.709768
           3
 STEP:         229
 O      5.269034      5.335972      5.331043
 H      4.904305      4.419969      5.289356
 H      6.025579      5.312151      4.707563
           3
 STEP:         230
 O      5.268956      5.335939      5.331245
 H      4.907025      4.418720      5.288702
 H      6.023998      5.314023      4.705367
           3
 STEP:         231
 O      5.268877      5.335903      5.331446
 H      4.909757      4.417507      5.288050
 H      6.022403      5.315897      4.703181
           3
 STEP:         232
 O      5.268799      5.335865      5.331646
 H      4.912503      4.416330      5.287402
 H      6.020794      5.317772      4.701007
           3
 STEP:         233
 O      5.268720      5.335825      5.331846
 H      4.915261      4.415190      5.286758
 H      6.019171      5.319650      4.698844
           3
 STEP:         234
 O      5.268642      5.335782      5.332044
 H      4.918031      4.414087      5.286119
 H      6.017534      5.321529      4.696693
           3
 STEP:         235
 O      5.268563      5.335736      5.332241
 H      4.920812      4.413020      5.285484
 H      6.015883      5.323412      4.694558
           3
 STEP:         236
 O      5.268485      5.335687      5.332437
 H      4.923606      4.411989      5.284855
 H      6.014217      5.325299      4.692438
           3
 STEP:         237
 O      5.268407      5.335635      5.332632
 H      4.926410      4.410995      5.284231
 H      6.012537      5.327190      4.690334
           3
 STEP:         238
 O      5.268330      5.335581      5.332826
 H      4.929225      4.410037      5.283613
 H      6.010841      5.329087      4.688249
           3
 STEP:         239
 O      5.268253      5.335525      5.333019
 H      4.932051      4.409114      5.282999
 H      6.009129      5.330989      4.686181
           3
 STEP:         240
 O      5.268177      5.335466      5.333211
 H      4.934886      4.408227      5.282392
 H      6.007401      5.332899      4.684133
           3
 STEP:         241
 O      5.268101      5.335405      5.333401
 H      4.937730      4.407374      5.281789
 H      6.005656      5.334816      4.682104
           3
 STEP:         242
 O      5.268026      5.335341      5.333591
 H      4.940581      4.406554      5.281193
 H      6.003894      5.336741      4.680094
           3
 STEP:         243
 O      5.267952      5.335275      5.333778
 H      4.943440      4.405768      5.280602
 H      6.002112      5.338673      4.678104
           3
 STEP:         244
 O      5.267879      5.335206      5.333964
 H      4.946303      4.405015      5.280018
 H      6.000311      5.340614      4.676134
           3
 STEP:         245
 O      5.267807      5.335135      5.334147
 H      4.949170      4.404294      5.279440
 H      5.998490      5.342562      4.674184
           3
 STEP:         246
 O      5.267735      5.335062      5.334329
 H      4.952039      4.403604      5.278870
 H      5.996649      5.344520      4.672254
           3
 STEP:         247
 O      5.267665      5.334986      5.334508
 H      4.954908      4.402944      5.278308
 H      5.994787      5.346486      4.670345
           3
 STEP:         248
 O      5.267595      5.334908      5.334686
 H      4.957778      4.402312      5.277755
 H      5.992905      5.348462      4.668458
           3
 STEP:         249
 O      5.267527      5.334828      5.334862
 H      4.960647      4.401708      5.277212
 H      5.991003      5.350447      4.666592
           3
 STEP:         250
 O      5.267459      5.334746      5.335036
 H      4.963514      4.401128      5.276680
 H      5.989081      5.352444      4.664748
           3
 STEP:         251
 O      5.267393      5.334662      5.335209
 H      4.966379      4.400573      5.276160
 H      5.987140      5.354453      4.662926
           3
 STEP:         252
 O      5.267329      5.334575      5.335380
 H      4.969243      4.400041      5.275651
 H      5.985180      5.356473      4.661128
           3
 STEP:         253
 O      5.267265      5.334486      5.335548
 H      4.972103      4.399530      5.275155
 H      5.983201      5.358506      4.659353
           3
 STEP:         254
 O      5.267203      5.334395      5.335715
 H      4.974962      4.399040      5.274672
 H      5.981204      5.360551      4.657602
           3
 STEP:         255
 O      5.267143      5.334302      5.335880
 H      4.977816      4.398569      5.274201
 H      5.979189      5.362608      4.655874
           3
 STEP:         256
 O      5.267084      5.334207      5.336043
 H      4.980667      4.398115      5.273742
 H      5.977157      5.364678      4.654170
           3
 STEP:         257
 O      5.267027      5.334110      5.336204
 H      4.983513      4.397677      5.273295
 H      5.975107      5.366762      4.652488
           3
 STEP:         258
 O      5.266972      5.334011      5.336362
 H      4.986353      4.397252      5.272860
 H      5.973040      5.368859      4.650829
           3
 STEP:         259
 O      5.266917      5.333911      5.336518
 H      4.989185      4.396839      5.272437
 H      5.970957      5.370971      4.649192
           3
 STEP:         260
 O      5.266865      5.333809      5.336673
 H      4.992009      4.396436      5.272027
 H      5.968857      5.373098      4.647576
           3
 STEP:         261
 O      5.266814      5.333706      5.336825
 H      4.994823      4.396040      5.271630
 H      5.966743      5.375242      4.645981
           3
 STEP:         262
 O      5.266764      5.333602      5.336975
 H      4.997626      4.395650      5.271246
 H      5.964613      5.377402      4.644405
           3
 STEP:         263
 O      5.266716      5.333496      5.337123
 H      5.000415      4.395263      5.270875
 H      5.962470      5.379579      4.642849
           3
 STEP:         264
 O      5.266669      5.333390      5.337268
 H      5.003189      4.394879      5.270518
 H      5.960313      5.381775      4.641312
           3
 STEP:         265
 O      5.266624      5.333282      5.337412
 H      5.005947      4.394494      5.270174
 H      5.958143      5.383988      4.639793
           3
 STEP:         266
 O      5.266580      5.333173      5.337553
 H      5.008688      4.394108      5.269845
 H      5.955961      5.386221      4.638293
           3
 STEP:         267
 O      5.266538      5.333064      5.337693
 H      5.011413      4.393719      5.269529
 H      5.953768      5.388472      4.636811
           3
 STEP:         268
 O      5.266497      5.332953      5.337830
 H      5.014120      4.393324      5.269228
 H      5.951563      5.390742      4.635347
           3
 STEP:         269
 O      5.266458      5.332842      5.337966
 H      5.016810      4.392922      5.268941
 H      5.949349      5.393031      4.633901
           3
 STEP:         270
 O      5.266421      5.332730      5.338100
 H      5.019483      4.392512      5.268668
 H      5.947125      5.395339      4.632472
           3
 STEP:         271
 O      5.266385      5.332618      5.338232
 H      5.022139      4.392093      5.268409
 H      5.944892      5.397667      4.631060
           3
 STEP:         272
 O      5.266351      5.332504      5.338362
 H      5.024778      4.391662      5.268166
 H      5.942652      5.400014      4.629664
           3
 STEP:         273
 O      5.266319      5.332390      5.338490
 H      5.027400      4.391219      5.267939
 H      5.940403      5.402381      4.628284
           3
 STEP:         274
 O      5.266288      5.332275      5.338616
 H      5.030005      4.390762      5.267728
 H      5.938148      5.404767      4.626920
           3
 STEP:         275
 O      5.266259      5.332160      5.338740
 H      5.032594      4.390291      5.267533
 H      5.935886      5.407174      4.625571
           3
 STEP:         276
 O      5.266232      5.332044      5.338863
 H      5.035165      4.389804      5.267355
 H      5.933618      5.409600      4.624235
           3
 STEP:         277
 O      5.266205      5.331928      5.338984
 H      5.037719      4.389300      5.267192
 H      5.931345      5.412047      4.622913
           3
 STEP:         278
 O      5.266180      5.331812      5.339104
 H      5.040255      4.388778      5.267045
 H      5.929066      5.414514      4.621603
           3
 STEP:         279
 O      5.266156      5.331696      5.339222
 H      5.042774      4.388239      5.266914
 H      5.926783      5.417002      4.620304
           3
 STEP:         280
 O      5.266134      5.331579      5.339338
 H      5.045274      4.387680      5.266798
 H      5.924495      5.419511      4.619017
           3
 STEP:         281
 O      5.266113      5.331463      5.339452
 H      5.047754      4.387102      5.266696
 H      5.922204      5.422040      4.617739
           3
 STEP:         282
 O      5.266093      5.331346      5.339564
 H      5.050216      4.386505      5.266610
 H      5.919911      5.424589      4.616472
           3
 STEP:         283
 O      5.266075      5.331230      5.339676
 H      5.052657      4.385887      5.266537
 H      5.917616      5.427158      4.615214
           3
 STEP:         284
 O      5.266058      5.331113      5.339785
 H      5.055079      4.385249      5.266480
 H      5.915320      5.429747      4.613964
           3
 STEP:         285
 O      5.266043      5.330996      5.339894
 H      5.057481      4.384591      5.266437
 H      5.913023      5.432356      4.612722
           3
 STEP:         286
 O      5.266028      5.330879      5.340000
 H      5.059863      4.383913      5.266409
 H      5.910726      5.434984      4.611488
           3
 STEP:         287
 O      5.266015      5.330762      5.340106
 H      5.062226      4.383215      5.266396
 H      5.908429      5.437633      4.610260
           3
 STEP:         288
 O      5.266003      5.330645      5.340209
 H      5.064570      4.382497      5.266399
 H      5.906132      5.440301      4.609038
           3
 STEP:         289
 O      5.265993      5.330527      5.340312
 H      5.066895      4.381761      5.266418
 H      5.903836      5.442990      4.607822
           3
 STEP:         290
 O      5.265983      5.330409      5.340413
 H      5.069202      4.381006      5.266453
 H      5.901541      5.445699      4.606610
           3
 STEP:         291
 O      5.265974      5.330291      5.340513
 H      5.071492      4.380234      5.266503
 H      5.899247      5.448429      4.605404
           3
 STEP:         292
 O      5.265966      5.330173      5.340612
 H      5.073766      4.379445      5.266569
 H      5.896955      5.451179      4.604202
           3
 STEP:         293
 O      5.265958      5.330055      5.340710
 H      5.076024      4.378640      5.266650
 H      5.894665      5.453950      4.603004
           3
 STEP:         294
 O      5.265951      5.329936      5.340808
 H      5.078269      4.377820      5.266745
 H      5.892378      5.456742      4.601810
           3
 STEP:         295
 O      5.265945      5.329818      5.340904
 H      5.080499      4.376987      5.266854
 H      5.890094      5.459554      4.600620
           3
 STEP:         296
 O      5.265940      5.329698      5.340999
 H      5.082716      4.376140      5.266976
 H      5.887812      5.462385      4.599432
           3
 STEP:         297
 O      5.265936      5.329579      5.341093
 H      5.084920      4.375282      5.267111
 H      5.885532      5.465234      4.598247
           3
 STEP:         298
 O      5.265932      5.329459      5.341186
 H      5.087112      4.374413      5.267260
 H      5.883254      5.468101      4.597063
           3
 STEP:         299
 O      5.265929      5.329338      5.341277
 H      5.089290      4.373535      5.267421
 H      5.880977      5.470984      4.595882
           3
 STEP:         300
 O      5.265926      5.329217      5.341368
 H      5.091457      4.372649      5.267595
 H      5.878703      5.473882      4.594703
           3
 STEP:         301
 O      5.265924      5.329096      5.341457
 H      5.093612      4.371756      5.267781
 H      5.876430      5.476796      4.593525
           3
 STEP:         302
 O      5.265922      5.328974      5.341546
 H      5.095756      4.370857      5.267979
 H      5.874160      5.479725      4.592350
           3
 STEP:         303
 O      5.265921      5.328851      5.341634
 H      5.097890      4.369953      5.268188
 H      5.871891      5.482668      4.591177
           3
 STEP:         304
 O      5.265920      5.328728      5.341721
 H      5.100014      4.369046      5.268408
 H      5.869623      5.485626      4.590006
           3
 STEP:         305
 O      5.265920      5.328604      5.341807
 H      5.102129      4.368136      5.268639
 H      5.867358      5.488597      4.588839
           3
 STEP:         306
 O      5.265920      5.328479      5.341893
 H      5.104237      4.367226      5.268880
 H      5.865094      5.491581      4.587674
           3
 STEP:         307
 O      5.265921      5.328353      5.341978
 H      5.106338      4.366317      5.269132
 H      5.862831      5.494576      4.586514
           3
 STEP:         308
 O      5.265923      5.328227      5.342062
 H      5.108433      4.365411      5.269393
 H      5.860568      5.497583      4.585357
           3
 STEP:         309
 O      5.265926      5.328099      5.342145
 H      5.110523      4.364508      5.269665
 H      5.858306      5.500599      4.584205
           3
 STEP:         310
 O      5.265929      5.327971      5.342228
 H      5.112608      4.363612      5.269948
 H      5.856044      5.503624      4.583058
           3
 STEP:         311
 O      5.265932      5.327841      5.342310
 H      5.114690      4.362724      5.270241
 H      5.853780      5.506657      4.581916
           3
 STEP:         312
 O      5.265935      5.327709      5.342391
 H      5.116767      4.361846      5.270543
 H      5.851514      5.509698      4.580779
           3
 STEP:         313
 O      5.265938      5.327577      5.342471
 H      5.118842      4.360981      5.270854
 H      5.849245      5.512745      4.579647
           3
 STEP:         314
 O      5.265941      5.327443      5.342550
 H      5.120914      4.360130      5.271173
 H      5.846972      5.515799      4.578521
           3
 STEP:         315
 O      5.265944      5.327308      5.342628
 H      5.122984      4.359294      5.271499
 H      5.844695      5.518858      4.577400
           3
 STEP:         316
 O      5.265947      5.327172      5.342705
 H      5.125053      4.358477      5.271830
 H      5.842413      5.521922      4.576286
           3
 STEP:         317
 O      5.265951      5.327035      5.342781
 H      5.127122      4.357678      5.272165
 H      5.840124      5.524990      4.575179
           3
 STEP:         318
 O      5.265955      5.326896      5.342857
 H      5.129190      4.356900      5.272505
 H      5.837829      5.528061      4.574080
           3
 STEP:         319
 O      5.265959      5.326756      5.342931
 H      5.131259      4.356143      5.272847
 H      5.835527      5.531134      4.572990
           3
 STEP:         320
 O      5.265965      5.326615      5.343004
 H      5.133329      4.355409      5.273193
 H      5.833217      5.534208      4.571910
           3
 STEP:         321
 O      5.265970      5.326472      5.343077
 H      5.135401      4.354700      5.273542
 H      5.830900      5.537282      4.570841
           3
 STEP:         322
 O      5.265976      5.326328      5.343149
 H      5.137475      4.354016      5.273895
 H      5.828575      5.540355      4.569784
           3
 STEP:         323
 O      5.265983      5.326183      5.343220
 H      5.139553      4.353359      5.274251
 H      5.826240      5.543426      4.568737
           3
 STEP:         324
 O      5.265989      5.326037      5.343291
 H      5.141635      4.352729      5.274609
 H      5.823897      5.546493      4.567704
           3
 STEP:         325
 O      5.265996      5.325889      5.343361
 H      5.143722      4.352129      5.274970
 H      5.821545      5.549556      4.566683
           3
 STEP:         326
 O      5.266003      5.325739      5.343429
 H      5.145815      4.351557      5.275331
 H      5.819182      5.552614      4.565675
           3
 STEP:         327
 O      5.266010      5.325588      5.343497
 H      5.147915      4.351015      5.275693
 H      5.816809      5.555665      4.564682
           3
 STEP:         328
 O      5.266017      5.325436      5.343564
 H      5.150021      4.350504      5.276054
 H      5.814425      5.558708      4.563704
           3
 STEP:         329
 O      5.266025      5.325283      5.343630
 H      5.152134      4.350023      5.276413
 H      5.812029      5.561741      4.562741
           3
 STEP:         330
 O      5.266033      5.325129      5.343695
 H      5.154255      4.349572      5.276769
 H      5.809621      5.564762      4.561795
           3
 STEP:         331
 O      5.266042      5.324973      5.343760
 H      5.156381      4.349152      5.277122
 H      5.807200      5.567771      4.560866
           3
 STEP:         332
 O      5.266051      5.324816      5.343823
 H      5.158514      4.348763      5.277471
 H      5.804765      5.570765      4.559955
           3
 STEP:         333
 O      5.266060      5.324659      5.343885
 H      5.160653      4.348406      5.277816
 H      5.802316      5.573745      4.559064
           3
 STEP:         334
 O      5.266069      5.324501      5.343946
 H      5.162798      4.348080      5.278156
 H      5.799854      5.576708      4.558192
           3
 STEP:         335
 O      5.266079      5.324342      5.344007
 H      5.164949      4.347785      5.278492
 H      5.797377      5.579655      4.557341
           3
 STEP:         336
 O      5.266089      5.324182      5.344066
 H      5.167107      4.347523      5.278823
 H      5.794886      5.582584      4.556512
           3
 STEP:         337
 O      5.266100      5.324021      5.344125
 H      5.169272      4.347292      5.279148
 H      5.792380      5.585496      4.555706
           3
 STEP:         338
 O      5.266110      5.323859      5.344183
 H      5.171447      4.347092      5.279466
 H      5.789858      5.588389      4.554922
           3
 STEP:         339
 O      5.266121      5.323696      5.344241
 H      5.173631      4.346923      5.279778
 H      5.787321      5.591263      4.554161
           3
 STEP:         340
 O      5.266132      5.323532      5.344298
 H      5.175826      4.346785      5.280083
 H      5.784766      5.594117      4.553422
           3
 STEP:         341
 O      5.266144      5.323369      5.344354
 H      5.178032      4.346677      5.280380
 H      5.782194      5.596951      4.552706
           3
 STEP:         342
 O      5.266156      5.323205      5.344410
 H      5.180249      4.346597      5.280667
 H      5.779604      5.599764      4.552013
           3
 STEP:         343
 O      5.266169      5.323041      5.344465
 H      5.182477      4.346546      5.280945
 H      5.776995      5.602554      4.551342
           3
 STEP:         344
 O      5.266182      5.322877      5.344518
 H      5.184716      4.346522      5.281211
 H      5.774369      5.605321      4.550694
           3
 STEP:         345
 O      5.266195      5.322713      5.344571
 H      5.186966      4.346525      5.281465
 H      5.771724      5.608064      4.550069
           3
 STEP:         346
 O      5.266209      5.322549      5.344623
 H      5.189226      4.346554      5.281707
 H      5.769061      5.610781      4.549467
           3
 STEP:         347
 O      5.266223      5.322385      5.344675
 H      5.191496      4.346608      5.281935
 H      5.766380      5.613473      4.548889
           3
 STEP:         348
 O      5.266237      5.322221      5.344726
 H      5.193776      4.346686      5.282150
 H      5.763683      5.616138      4.548334
           3
 STEP:         349
 O      5.266251      5.322058      5.344777
 H      5.196066      4.346787      5.282351
 H      5.760969      5.618776      4.547803
           3
 STEP:         350
 O      5.266266      5.321896      5.344827
 H      5.198366      4.346909      5.282537
 H      5.758239      5.621386      4.547295
           3
 STEP:         351
 O      5.266282      5.321734      5.344877
 H      5.200678      4.347051      5.282707
 H      5.755493      5.623967      4.546810
           3
 STEP:         352
 O      5.266297      5.321572      5.344926
 H      5.203001      4.347211      5.282863
 H      5.752732      5.626520      4.546347
           3
 STEP:         353
 O      5.266313      5.321412      5.344975
 H      5.205336      4.347386      5.283003
 H      5.749955      5.629044      4.545905
           3
 STEP:         354
 O      5.266328      5.321253      5.345025
 H      5.207683      4.347575      5.283126
 H      5.747163      5.631538      4.545485
           3
 STEP:         355
 O      5.266344      5.321096      5.345074
 H      5.210043      4.347776      5.283233
 H      5.744357      5.634001      4.545086
           3
 STEP:         356
 O      5.266360      5.320939      5.345123
 H      5.212414      4.347987      5.283322
 H      5.741537      5.636434      4.544706
           3
 STEP:         357
 O      5.266376      5.320784      5.345173
 H      5.214798      4.348206      5.283393
 H      5.738704      5.638834      4.544347
           3
 STEP:         358
 O      5.266391      5.320630      5.345222
 H      5.217192      4.348432      5.283446
 H      5.735858      5.641203      4.544007
           3
 STEP:         359
 O      5.266407      5.320477      5.345271
 H      5.219596      4.348664      5.283480
 H      5.732999      5.643539      4.543687
           3
 STEP:         360
 O      5.266422      5.320326      5.345320
 H      5.222010      4.348901      5.283494
 H      5.730129      5.645842      4.543385
           3
 STEP:         361
 O      5.266438      5.320176      5.345369
 H      5.224435      4.349141      5.283487
 H      5.727248      5.648112      4.543101
           3
 STEP:         362
 O      5.266454      5.320028      5.345418
 H      5.226869      4.349383      5.283460
 H      5.724356      5.650348      4.542835
           3
 STEP:         363
 O      5.266469      5.319883      5.345468
 H      5.229313      4.349626      5.283411
 H      5.721455      5.652552      4.542584
           3
 STEP:         364
 O      5.266485      5.319739      5.345518
 H      5.231767      4.349868      5.283341
 H      5.718543      5.654723      4.542349
           3
 STEP:         365
 O      5.266500      5.319598      5.345569
 H      5.234233      4.350108      5.283249
 H      5.715621      5.656862      4.542127
           3
 STEP:         366
 O      5.266515      5.319460      5.345621
 H      5.236710      4.350343      5.283134
 H      5.712690      5.658970      4.541918
           3
 STEP:         367
 O      5.266530      5.319324      5.345673
 H      5.239200      4.350572      5.282997
 H      5.709750      5.661047      4.541720
           3
 STEP:         368
 O      5.266545      5.319190      5.345726
 H      5.241703      4.350793      5.282837
 H      5.706801      5.663093      4.541533
           3
 STEP:         369
 O      5.266559      5.319059      5.345779
 H      5.244218      4.351004      5.282654
 H      5.703843      5.665109      4.541355
           3
 STEP:         370
 O      5.266572      5.318931      5.345834
 H      5.246746      4.351205      5.282447
 H      5.700879      5.667094      4.541185
           3
 STEP:         371
 O      5.266585      5.318806      5.345890
 H      5.249286      4.351394      5.282217
 H      5.697907      5.669050      4.541023
           3
 STEP:         372
 O      5.266597      5.318685      5.345946
 H      5.251838      4.351569      5.281963
 H      5.694930      5.670976      4.540867
           3
 STEP:         373
 O      5.266608      5.318566      5.346005
 H      5.254401      4.351731      5.281684
 H      5.691947      5.672871      4.540717
           3
 STEP:         374
 O      5.266619      5.318449      5.346065
 H      5.256976      4.351878      5.281381
 H      5.688960      5.674736      4.540571
           3
 STEP:         375
 O      5.266629      5.318336      5.346126
 H      5.259561      4.352011      5.281052
 H      5.685970      5.676572      4.540429
           3
 STEP:         376
 O      5.266638      5.318225      5.346189
 H      5.262159      4.352127      5.280698
 H      5.682976      5.678377      4.540288
           3
 STEP:         377
 O      5.266646      5.318116      5.346254
 H      5.264769      4.352228      5.280319
 H      5.679981      5.680152      4.540149
           3
 STEP:         378
 O      5.266654      5.318010      5.346321
 H      5.267391      4.352312      5.279915
 H      5.676986      5.681897      4.540009
           3
 STEP:         379
 O      5.266661      5.317907      5.346390
 H      5.270026      4.352377      5.279485
 H      5.673991      5.683612      4.539868
           3
 STEP:         380
 O      5.266666      5.317806      5.346460
 H      5.272674      4.352424      5.279029
 H      5.670998      5.685299      4.539724
           3
 STEP:         381
 O      5.266671      5.317707      5.346532
 H      5.275335      4.352451      5.278548
 H      5.668008      5.686956      4.539576
           3
 STEP:         382
 O      5.266675      5.317612      5.346606
 H      5.278010      4.352458      5.278041
 H      5.665021      5.688586      4.539421
           3
 STEP:         383
 O      5.266678      5.317519      5.346682
 H      5.280697      4.352444      5.277507
 H      5.662039      5.690188      4.539259
           3
 STEP:         384
 O      5.266679      5.317429      5.346760
 H      5.283397      4.352411      5.276946
 H      5.659062      5.691765      4.539087
           3
 STEP:         385
 O      5.266680      5.317342      5.346841
 H      5.286108      4.352358      5.276359
 H      5.656089      5.693316      4.538905
           3
 STEP:         386
 O      5.266679      5.317257      5.346924
 H      5.288831      4.352286      5.275744
 H      5.653122      5.694843      4.538711
           3
 STEP:         387
 O      5.266678      5.317176      5.347009
 H      5.291564      4.352196      5.275103
 H      5.650161      5.696348      4.538504
           3
 STEP:         388
 O      5.266676      5.317097      5.347096
 H      5.294309      4.352088      5.274435
 H      5.647206      5.697830      4.538283
           3
 STEP:         389
 O      5.266672      5.317022      5.347186
 H      5.297065      4.351964      5.273741
 H      5.644257      5.699290      4.538047
           3
 STEP:         390
 O      5.266667      5.316949      5.347278
 H      5.299834      4.351825      5.273021
 H      5.641315      5.700728      4.537795
           3
 STEP:         391
 O      5.266660      5.316879      5.347373
 H      5.302614      4.351671      5.272276
 H      5.638381      5.702144      4.537528
           3
 STEP:         392
 O      5.266653      5.316811      5.347471
 H      5.305407      4.351503      5.271506
 H      5.635455      5.703539      4.537243
           3
 STEP:         393
 O      5.266644      5.316746      5.347572
 H      5.308212      4.351324      5.270712
 H      5.632537      5.704913      4.536942
           3
 STEP:         394
 O      5.266634      5.316682      5.347676
 H      5.311030      4.351133      5.269893
 H      5.629627      5.706265      4.536622
           3
 STEP:         395
 O      5.266622      5.316621      5.347782
 H      5.313860      4.350934      5.269050
 H      5.626726      5.707596      4.536285
           3
 STEP:         396
 O      5.266609      5.316561      5.347891
 H      5.316701      4.350727      5.268182
 H      5.623834      5.708907      4.535929
           3
 STEP:         397
 O      5.266595      5.316503      5.348003
 H      5.319553      4.350514      5.267290
 H      5.620951      5.710198      4.535553
           3
 STEP:         398
 O      5.266579      5.316445      5.348118
 H      5.322415      4.350296      5.266373
 H      5.618078      5.711468      4.535159
           3
 STEP:         399
 O      5.266561      5.316389      5.348235
 H      5.325287      4.350074      5.265431
 H      5.615215      5.712719      4.534745
           3
 STEP:         400
 O      5.266543      5.316334      5.348355
 H      5.328169      4.349850      5.264464
 H      5.612361      5.713951      4.534311
           3
 STEP:         401
 O      5.266523      5.316280      5.348479
 H      5.331061      4.349624      5.263472
 H      5.609517      5.715164      4.533857
           3
 STEP:         402
 O      5.266502      5.316227      5.348605
 H      5.333964      4.349398      5.262456
 H      5.606683      5.716359      4.533382
           3
 STEP:         403
 O      5.266480      5.316175      5.348733
 H      5.336878      4.349173      5.261417
 H      5.603859      5.717536      4.532887
           3
 STEP:         404
 O      5.266456      5.316124      5.348865
 H      5.339803      4.348951      5.260355
 H      5.601044      5.718697      4.532370
           3
 STEP:         405
 O      5.266432      5.316073      5.348999
 H      5.342740      4.348733      5.259270
 H      5.598238      5.719841      4.531832
           3
 STEP:         406
 O      5.266406      5.316024      5.349136
 H      5.345687      4.348521      5.258163
 H      5.595441      5.720969      4.531273
           3
 STEP:         407
 O      5.266378      5.315975      5.349275
 H      5.348645      4.348316      5.257033
 H      5.592652      5.722081      4.530693
           3
 STEP:         408
 O      5.266349      5.315926      5.349417
 H      5.351612      4.348121      5.255881
 H      5.589871      5.723177      4.530093
           3
 STEP:         409
 O      5.266318      5.315879      5.349561
 H      5.354588      4.347938      5.254707
 H      5.587098      5.724256      4.529473
           3
 STEP:         410
 O      5.266287      5.315831      5.349707
 H      5.357571      4.347770      5.253512
 H      5.584332      5.725318      4.528835
           3
 STEP:         411
 O      5.266254      5.315783      5.349856
 H      5.360560      4.347619      5.252297
 H      5.581573      5.726361      4.528180
           3
 STEP:         412
 O      5.266221      5.315736      5.350006
 H      5.363556      4.347488      5.251061
 H      5.578822      5.727387      4.527508
           3
 STEP:         413
 O      5.266186      5.315689      5.350159
 H      5.366557      4.347378      5.249807
 H      5.576078      5.728394      4.526821
           3
 STEP:         414
 O      5.266151      5.315641      5.350313
 H      5.369563      4.347293      5.248534
 H      5.573342      5.729383      4.526120
           3
 STEP:         415
 O      5.266115      5.315593      5.350469
 H      5.372574      4.347232      5.247242
 H      5.570613      5.730353      4.525406
           3
 STEP:         416
 O      5.266077      5.315544      5.350628
 H      5.375590      4.347199      5.245933
 H      5.567892      5.731304      4.524680
           3
 STEP:         417
 O      5.266039      5.315494      5.350788
 H      5.378609      4.347193      5.244608
 H      5.565177      5.732237      4.523942
           3
 STEP:         418
 O      5.266001      5.315443      5.350951
 H      5.381632      4.347216      5.243265
 H      5.562469      5.733150      4.523195
           3
 STEP:         419
 O      5.265961      5.315393      5.351115
 H      5.384657      4.347268      5.241907
 H      5.559767      5.734045      4.522439
           3
 STEP:         420
 O      5.265921      5.315341      5.351280
 H      5.387685      4.347351      5.240533
 H      5.557071      5.734922      4.521675
           3
 STEP:         421
 O      5.265880      5.315290      5.351447
 H      5.390714      4.347466      5.239144
 H      5.554379      5.735780      4.520905
           3
 STEP:         422
 O      5.265839      5.315237      5.351615
 H      5.393745      4.347613      5.237740
 H      5.551691      5.736620      4.520130
           3
 STEP:         423
 O      5.265797      5.315184      5.351784
 H      5.396778      4.347794      5.236323
 H      5.549005      5.737443      4.519350
           3
 STEP:         424
 O      5.265754      5.315131      5.351955
 H      5.399813      4.348010      5.234893
 H      5.546322      5.738249      4.518568
           3
 STEP:         425
 O      5.265712      5.315076      5.352126
 H      5.402851      4.348263      5.233451
 H      5.543640      5.739038      4.517784
           3
 STEP:         426
 O      5.265668      5.315021      5.352299
 H      5.405890      4.348554      5.231998
 H      5.540960      5.739809      4.516999
           3
 STEP:         427
 O      5.265625      5.314965      5.352472
 H      5.408932      4.348883      5.230535
 H      5.538280      5.740561      4.516215
           3
 STEP:         428
 O      5.265582      5.314908      5.352647
 H      5.411975      4.349250      5.229062
 H      5.535602      5.741295      4.515433
           3
 STEP:         429
 O      5.265539      5.314849      5.352821
 H      5.415020      4.349657      5.227580
 H      5.532924      5.742008      4.514654
           3
 STEP:         430
 O      5.265495      5.314788      5.352996
 H      5.418065      4.350104      5.226090
 H      5.530247      5.742701      4.513880
           3
 STEP:         431
 O      5.265452      5.314726      5.353170
 H      5.421109      4.350590      5.224591
 H      5.527571      5.743374      4.513112
           3
 STEP:         432
 O      5.265409      5.314663      5.353345
 H      5.424152      4.351117      5.223085
 H      5.524894      5.744025      4.512351
           3
 STEP:         433
 O      5.265366      5.314599      5.353519
 H      5.427193      4.351685      5.221571
 H      5.522218      5.744657      4.511599
           3
 STEP:         434
 O      5.265323      5.314533      5.353692
 H      5.430233      4.352293      5.220049
 H      5.519540      5.745268      4.510856
           3
 STEP:         435
 O      5.265280      5.314466      5.353866
 H      5.433269      4.352941      5.218521
 H      5.516861      5.745860      4.510123
           3
 STEP:         436
 O      5.265238      5.314397      5.354038
 H      5.436304      4.353629      5.216985
 H      5.514180      5.746433      4.509403
           3
 STEP:         437
 O      5.265195      5.314327      5.354211
 H      5.439336      4.354356      5.215443
 H      5.511497      5.746986      4.508696
           3
 STEP:         438
 O      5.265153      5.314256      5.354383
 H      5.442365      4.355122      5.213895
 H      5.508811      5.747522      4.508004
           3
 STEP:         439
 O      5.265111      5.314184      5.354555
 H      5.445392      4.355927      5.212341
 H      5.506121      5.748038      4.507329
           3
 STEP:         440
 O      5.265069      5.314110      5.354725
 H      5.448414      4.356769      5.210782
 H      5.503426      5.748536      4.506672
           3
 STEP:         441
 O      5.265027      5.314036      5.354895
 H      5.451433      4.357648      5.209220
 H      5.500726      5.749016      4.506035
           3
 STEP:         442
 O      5.264986      5.313961      5.355063
 H      5.454447      4.358565      5.207655
 H      5.498021      5.749477      4.505419
           3
 STEP:         443
 O      5.264944      5.313885      5.355229
 H      5.457456      4.359518      5.206088
 H      5.495310      5.749919      4.504824
           3
 STEP:         444
 O      5.264903      5.313808      5.355395
 H      5.460460      4.360507      5.204520
 H      5.492594      5.750342      4.504252
           3
 STEP:         445
 O      5.264862      5.313730      5.355559
 H      5.463458      4.361531      5.202952
 H      5.489873      5.750747      4.503703
           3
 STEP:         446
 O      5.264822      5.313650      5.355723
 H      5.466450      4.362589      5.201385
 H      5.487147      5.751133      4.503177
           3
 STEP:         447
 O      5.264782      5.313569      5.355885
 H      5.469435      4.363680      5.199820
 H      5.484417      5.751500      4.502675
           3
 STEP:         448
 O      5.264744      5.313488      5.356045
 H      5.472414      4.364802      5.198257
 H      5.481684      5.751850      4.502198
           3
 STEP:         449
 O      5.264705      5.313405      5.356204
 H      5.475386      4.365953      5.196697
 H      5.478946      5.752183      4.501746
           3
 STEP:         450
 O      5.264668      5.313323      5.356361
 H      5.478351      4.367131      5.195141
 H      5.476204      5.752498      4.501318
           3
 STEP:         451
 O      5.264631      5.313239      5.356516
 H      5.481311      4.368337      5.193588
 H      5.473457      5.752798      4.500917
           3
 STEP:         452
 O      5.264594      5.313156      5.356670
 H      5.484264      4.369566      5.192040
 H      5.470706      5.753082      4.500541
           3
 STEP:         453
 O      5.264558      5.313072      5.356821
 H      5.487212      4.370820      5.190496
 H      5.467948      5.753353      4.500191
           3
 STEP:         454
 O      5.264523      5.312988      5.356971
 H      5.490153      4.372095      5.188956
 H      5.465184      5.753610      4.499867
           3
 STEP:         455
 O      5.264488      5.312904      5.357119
 H      5.493090      4.373391      5.187421
 H      5.462414      5.753856      4.499570
           3
 STEP:         456
 O      5.264454      5.312819      5.357264
 H      5.496021      4.374707      5.185891
 H      5.459637      5.754090      4.499300
           3
 STEP:         457
 O      5.264420      5.312734      5.357408
 H      5.498947      4.376042      5.184366
 H      5.456852      5.754314      4.499057
           3
 STEP:         458
 O      5.264386      5.312649      5.357550
 H      5.501868      4.377393      5.182847
 H      5.454059      5.754529      4.498840
           3
 STEP:         459
 O      5.264353      5.312563      5.357689
 H      5.504784      4.378760      5.181335
 H      5.451259      5.754734      4.498650
           3
 STEP:         460
 O      5.264321      5.312477      5.357827
 H      5.507696      4.380140      5.179829
 H      5.448451      5.754932      4.498486
           3
 STEP:         461
 O      5.264290      5.312391      5.357963
 H      5.510602      4.381532      5.178331
 H      5.445635      5.755122      4.498348
           3
 STEP:         462
 O      5.264259      5.312304      5.358096
 H      5.513505      4.382934      5.176840
 H      5.442811      5.755305      4.498235
           3
 STEP:         463
 O      5.264228      5.312217      5.358228
 H      5.516404      4.384344      5.175357
 H      5.439979      5.755483      4.498148
           3
 STEP:         464
 O      5.264198      5.312130      5.358357
 H      5.519301      4.385759      5.173882
 H      5.437139      5.755655      4.498085
           3
 STEP:         465
 O      5.264169      5.312042      5.358485
 H      5.522195      4.387179      5.172415
 H      5.434292      5.755823      4.498046
           3
 STEP:         466
 O      5.264141      5.311955      5.358610
 H      5.525086      4.388600      5.170959
 H      5.431438      5.755989      4.498031
           3
 STEP:         467
 O      5.264113      5.311867      5.358733
 H      5.527976      4.390022      5.169512
 H      5.428576      5.756152      4.498038
           3
 STEP:         468
 O      5.264086      5.311778      5.358854
 H      5.530865      4.391442      5.168075
 H      5.425707      5.756315      4.498067
           3
 STEP:         469
 O      5.264059      5.311690      5.358973
 H      5.533752      4.392859      5.166648
 H      5.422832      5.756479      4.498117
           3
 STEP:         470
 O      5.264032      5.311602      5.359090
 H      5.536638      4.394272      5.165232
 H      5.419951      5.756644      4.498187
           3
 STEP:         471
 O      5.264006      5.311513      5.359205
 H      5.539522      4.395680      5.163827
 H      5.417062      5.756813      4.498277
           3
 STEP:         472
 O      5.263979      5.311425      5.359319
 H      5.542405      4.397080      5.162432
 H      5.414167      5.756986      4.498386
           3
 STEP:         473
 O      5.263953      5.311337      5.359430
 H      5.545287      4.398473      5.161049
 H      5.411266      5.757164      4.498512
           3
 STEP:         474
 O      5.263927      5.311249      5.359539
 H      5.548167      4.399856      5.159676
 H      5.408358      5.757350      4.498655
           3
 STEP:         475
 O      5.263902      5.311162      5.359646
 H      5.551045      4.401229      5.158315
 H      5.405444      5.757544      4.498815
           3
 STEP:         476
 O      5.263876      5.311075      5.359752
 H      5.553921      4.402590      5.156967
 H      5.402525      5.757747      4.498988
           3
 STEP:         477
 O      5.263851      5.310989      5.359855
 H      5.556795      4.403939      5.155632
 H      5.399601      5.757960      4.499176
           3
 STEP:         478
 O      5.263826      5.310902      5.359957
 H      5.559667      4.405274      5.154311
 H      5.396673      5.758183      4.499376
           3
 STEP:         479
 O      5.263802      5.310815      5.360058
 H      5.562537      4.406595      5.153005
 H      5.393741      5.758418      4.499588
           3
 STEP:         480
 O      5.263778      5.310729      5.360157
 H      5.565405      4.407901      5.151715
 H      5.390805      5.758665      4.499810
           3
 STEP:         481
 O      5.263755      5.310642      5.360254
 H      5.568272      4.409191      5.150440
 H      5.387864      5.758925      4.500042
           3
 STEP:         482
 O      5.263732      5.310556      5.360350
 H      5.571137      4.410466      5.149181
 H      5.384918      5.759200      4.500282
           3
 STEP:         483
 O      5.263710      5.310470      5.360444
 H      5.574001      4.411724      5.147938
 H      5.381966      5.759489      4.500530
           3
 STEP:         484
 O      5.263687      5.310384      5.360537
 H      5.576865      4.412965      5.146710
 H      5.379007      5.759794      4.500784
           3
 STEP:         485
 O      5.263665      5.310298      5.360628
 H      5.579729      4.414189      5.145498
 H      5.376043      5.760115      4.501044
           3
 STEP:         486
 O      5.263643      5.310212      5.360719
 H      5.582593      4.415396      5.144301
 H      5.373071      5.760454      4.501309
           3
 STEP:         487
 O      5.263621      5.310126      5.360807
 H      5.585459      4.416587      5.143120
 H      5.370091      5.760810      4.501579
           3
 STEP:         488
 O      5.263600      5.310040      5.360894
 H      5.588328      4.417761      5.141955
 H      5.367104      5.761186      4.501852
           3
 STEP:         489
 O      5.263579      5.309954      5.360980
 H      5.591198      4.418920      5.140807
 H      5.364108      5.761582      4.502127
           3
 STEP:         490
 O      5.263559      5.309868      5.361065
 H      5.594072      4.420063      5.139677
 H      5.361104      5.762000      4.502403
           3
 STEP:         491
 O      5.263539      5.309781      5.361148
 H      5.596948      4.421191      5.138563
 H      5.358092      5.762441      4.502680
           3
 STEP:         492
 O      5.263519      5.309694      5.361231
 H      5.599826      4.422304      5.137467
 H      5.355071      5.762906      4.502957
           3
 STEP:         493
 O      5.263499      5.309606      5.361312
 H      5.602707      4.423402      5.136388
 H      5.352041      5.763395      4.503232
           3
 STEP:         494
 O      5.263480      5.309517      5.361393
 H      5.605590      4.424484      5.135327
 H      5.349003      5.763908      4.503506
           3
 STEP:         495
 O      5.263460      5.309428      5.361473
 H      5.608474      4.425553      5.134282
 H      5.345957      5.764444      4.503778
           3
 STEP:         496
 O      5.263441      5.309337      5.361551
 H      5.611359      4.426608      5.133255
 H      5.342902      5.765005      4.504047
           3
 STEP:         497
 O      5.263423      5.309246      5.361628
 H      5.614244      4.427650      5.132245
 H      5.339839      5.765589      4.504315
           3
 STEP:         498
 O      5.263405      5.309154      5.361703
 H      5.617127      4.428682      5.131253
 H      5.336769      5.766195      4.504580
           3
 STEP:         499
 O      5.263387      5.309061      5.361777
 H      5.620007      4.429702      5.130279
 H      5.333692      5.766825      4.504841
           3
 STEP:         500
 O      5.263370      5.308966      5.361850
 H      5.622884      4.430713      5.129322
 H      5.330609      5.767477      4.505100
           3
 STEP:         501
 O      5.263353      5.308871      5.361921
 H      5.625757      4.431716      5.128384
 H      5.327519      5.768152      4.505355
           3
 STEP:         502
 O      5.263337      5.308774      5.361991
 H      5.628626      4.432710      5.127464
 H      5.324424      5.768850      4.505607
           3
 STEP:         503
 O      5.263321      5.308677      5.362061
 H      5.631489      4.433699      5.126563
 H      5.321323      5.769570      4.505855
           3
 STEP:         504
 O      5.263306      5.308579      5.362129
 H      5.634347      4.434682      5.125682
 H      5.318217      5.770313      4.506100
           3
 STEP:         505
 O      5.263291      5.308479      5.362197
 H      5.637199      4.435660      5.124821
 H      5.315104      5.771079      4.506341
           3
 STEP:         506
 O      5.263277      5.308379      5.362263
 H      5.640046      4.436636      5.123982
 H      5.311986      5.771867      4.506580
           3
 STEP:         507
 O      5.263264      5.308277      5.362329
 H      5.642887      4.437611      5.123165
 H      5.308862      5.772679      4.506815
           3
 STEP:         508
 O      5.263252      5.308175      5.362393
 H      5.645722      4.438585      5.122370
 H      5.305731      5.773512      4.507049
           3
 STEP:         509
 O      5.263240      5.308071      5.362456
 H      5.648552      4.439561      5.121598
 H      5.302593      5.774367      4.507281
           3
 STEP:         510
 O      5.263228      5.307966      5.362517
 H      5.651376      4.440540      5.120847
 H      5.299448      5.775243      4.507512
           3
 STEP:         511
 O      5.263217      5.307859      5.362577
 H      5.654194      4.441522      5.120118
 H      5.296296      5.776139      4.507742
           3
 STEP:         512
 O      5.263207      5.307752      5.362636
 H      5.657007      4.442510      5.119409
 H      5.293136      5.777054      4.507972
           3
 STEP:         513
 O      5.263197      5.307643      5.362694
 H      5.659815      4.443505      5.118721
 H      5.289968      5.777987      4.508202
           3
 STEP:         514
 O      5.263188      5.307532      5.362749
 H      5.662616      4.444508      5.118053
 H      5.286793      5.778937      4.508433
           3
 STEP:         515
 O      5.263180      5.307420      5.362804
 H      5.665410      4.445521      5.117404
 H      5.283611      5.779903      4.508666
           3
 STEP:         516
 O      5.263173      5.307306      5.362856
 H      5.668195      4.446544      5.116773
 H      5.280421      5.780882      4.508903
           3
 STEP:         517
 O      5.263167      5.307190      5.362906
 H      5.670972      4.447580      5.116161
 H      5.277225      5.781875      4.509143
           3
 STEP:         518
 O      5.263162      5.307073      5.362955
 H      5.673739      4.448631      5.115566
 H      5.274021      5.782880      4.509388
           3
 STEP:         519
 O      5.263158      5.306953      5.363001
 H      5.676496      4.449696      5.114987
 H      5.270812      5.783896      4.509641
           3
 STEP:         520
 O      5.263155      5.306832      5.363046
 H      5.679243      4.450778      5.114426
 H      5.267595      5.784922      4.509901
           3
 STEP:         521
 O      5.263153      5.306710      5.363089
 H      5.681979      4.451876      5.113881
 H      5.264372      5.785956      4.510171
           3
 STEP:         522
 O      5.263152      5.306585      5.363130
 H      5.684705      4.452992      5.113354
 H      5.261142      5.786998      4.510451
           3
 STEP:         523
 O      5.263152      5.306460      5.363169
 H      5.687419      4.454125      5.112844
 H      5.257906      5.788047      4.510743
           3
 STEP:         524
 O      5.263152      5.306333      5.363207
 H      5.690122      4.455277      5.112352
 H      5.254665      5.789102      4.511047
           3
 STEP:         525
 O      5.263154      5.306204      5.363243
 H      5.692813      4.456448      5.111878
 H      5.251418      5.790161      4.511364
           3
 STEP:         526
 O      5.263156      5.306075      5.363277
 H      5.695491      4.457638      5.111421
 H      5.248166      5.791224      4.511695
           3
 STEP:         527
 O      5.263159      5.305944      5.363310
 H      5.698156      4.458850      5.110983
 H      5.244911      5.792289      4.512040
           3
 STEP:         528
 O      5.263163      5.305812      5.363341
 H      5.700807      4.460083      5.110563
 H      5.241653      5.793355      4.512401
           3
 STEP:         529
 O      5.263167      5.305678      5.363370
 H      5.703443      4.461339      5.110160
 H      5.238392      5.794421      4.512778
           3
 STEP:         530
 O      5.263173      5.305542      5.363396
 H      5.706065      4.462618      5.109774
 H      5.235128      5.795484      4.513174
           3
 STEP:         531
 O      5.263180      5.305406      5.363421
 H      5.708671      4.463922      5.109406
 H      5.231863      5.796543      4.513588
           3
 STEP:         532
 O      5.263188      5.305268      5.363443
 H      5.711261      4.465252      5.109054
 H      5.228596      5.797597      4.514022
           3
 STEP:         533
 O      5.263197      5.305129      5.363463
 H      5.713833      4.466607      5.108717
 H      5.225327      5.798644      4.514477
           3
 STEP:         534
 O      5.263207      5.304989      5.363480
 H      5.716389      4.467990      5.108396
 H      5.222056      5.799684      4.514954
           3
 STEP:         535
 O      5.263217      5.304847      5.363495
 H      5.718928      4.469400      5.108087
 H      5.218785      5.800714      4.515455
           3
 STEP:         536
 O      5.263229      5.304705      5.363507
 H      5.721450      4.470838      5.107791
 H      5.215512      5.801734      4.515978
           3
 STEP:         537
 O      5.263241      5.304561      5.363516
 H      5.723957      4.472305      5.107505
 H      5.212239      5.802742      4.516526
           3
 STEP:         538
 O      5.263254      5.304417      5.363524
 H      5.726447      4.473799      5.107228
 H      5.208966      5.803738      4.517099
           3
 STEP:         539
 O      5.263268      5.304273      5.363529
 H      5.728923      4.475321      5.106960
 H      5.205694      5.804721      4.517698
           3
 STEP:         540
 O      5.263282      5.304127      5.363532
 H      5.731386      4.476871      5.106698
 H      5.202423      5.805689      4.518323
           3
 STEP:         541
 O      5.263297      5.303982      5.363533
 H      5.733835      4.478447      5.106443
 H      5.199155      5.806642      4.518976
           3
 STEP:         542
 O      5.263313      5.303835      5.363531
 H      5.736271      4.480050      5.106195
 H      5.195888      5.807578      4.519656
           3
 STEP:         543
 O      5.263330      5.303689      5.363528
 H      5.738694      4.481679      5.105952
 H      5.192625      5.808497      4.520365
           3
 STEP:         544
 O      5.263346      5.303542      5.363522
 H      5.741105      4.483332      5.105715
 H      5.189366      5.809399      4.521102
           3
 STEP:         545
 O      5.263364      5.303396      5.363514
 H      5.743504      4.485010      5.105483
 H      5.186110      5.810281      4.521869
           3
 STEP:         546
 O      5.263381      5.303249      5.363504
 H      5.745890      4.486712      5.105257
 H      5.182859      5.811144      4.522666
           3
 STEP:         547
 O      5.263399      5.303102      5.363492
 H      5.748265      4.488435      5.105035
 H      5.179612      5.811986      4.523492
           3
 STEP:         548
 O      5.263417      5.302955      5.363479
 H      5.750628      4.490179      5.104818
 H      5.176370      5.812806      4.524347
           3
 STEP:         549
 O      5.263435      5.302807      5.363463
 H      5.752979      4.491944      5.104604
 H      5.173134      5.813603      4.525232
           3
 STEP:         550
 O      5.263453      5.302660      5.363446
 H      5.755319      4.493727      5.104393
 H      5.169904      5.814377      4.526146
           3
 STEP:         551
 O      5.263471      5.302512      5.363426
 H      5.757648      4.495528      5.104182
 H      5.166680      5.815126      4.527088
           3
 STEP:         552
 O      5.263490      5.302365      5.363405
 H      5.759966      4.497346      5.103971
 H      5.163464      5.815851      4.528058
           3
 STEP:         553
 O      5.263508      5.302218      5.363382
 H      5.762273      4.499181      5.103757
 H      5.160256      5.816549      4.529056
           3
 STEP:         554
 O      5.263527      5.302072      5.363358
 H      5.764571      4.501031      5.103540
 H      5.157056      5.817221      4.530080
           3
 STEP:         555
 O      5.263545      5.301926      5.363332
 H      5.766859      4.502898      5.103318
 H      5.153866      5.817866      4.531131
           3
 STEP:         556
 O      5.263563      5.301780      5.363304
 H      5.769139      4.504779      5.103090
 H      5.150684      5.818484      4.532208
           3
 STEP:         557
 O      5.263581      5.301635      5.363276
 H      5.771411      4.506676      5.102857
 H      5.147512      5.819075      4.533311
           3
 STEP:         558
 O      5.263598      5.301491      5.363246
 H      5.773676      4.508586      5.102618
 H      5.144349      5.819639      4.534439
           3
 STEP:         559
 O      5.263615      5.301347      5.363215
 H      5.775934      4.510511      5.102372
 H      5.141195      5.820176      4.535592
           3
 STEP:         560
 O      5.263632      5.301205      5.363182
 H      5.778187      4.512449      5.102120
 H      5.138051      5.820686      4.536770
           3
 STEP:         561
 O      5.263648      5.301064      5.363149
 H      5.780434      4.514401      5.101860
 H      5.134917      5.821171      4.537971
           3
 STEP:         562
 O      5.263663      5.300924      5.363115
 H      5.782678      4.516365      5.101591
 H      5.131792      5.821628      4.539195
           3
 STEP:         563
 O      5.263678      5.300785      5.363080
 H      5.784918      4.518341      5.101312
 H      5.128677      5.822060      4.540440
           3
 STEP:         564
 O      5.263693      5.300647      5.363045
 H      5.787156      4.520328      5.101022
 H      5.125573      5.822467      4.541705
           3
 STEP:         565
 O      5.263706      5.300510      5.363009
 H      5.789393      4.522323      5.100720
 H      5.122479      5.822847      4.542990
           3
 STEP:         566
 O      5.263719      5.300374      5.362973
 H      5.791629      4.524326      5.100404
 H      5.119397      5.823203      4.544291
           3
 STEP:         567
 O      5.263732      5.300240      5.362937
 H      5.793866      4.526335      5.100073
 H      5.116327      5.823534      4.545607
           3
 STEP:         568
 O      5.263743      5.300106      5.362901
 H      5.796104      4.528349      5.099726
 H      5.113270      5.823841      4.546938
           3
 STEP:         569
 O      5.263753      5.299974      5.362865
 H      5.798343      4.530367      5.099362
 H      5.110226      5.824124      4.548280
           3
 STEP:         570
 O      5.263762      5.299844      5.362830
 H      5.800585      4.532387      5.098980
 H      5.107195      5.824382      4.549635
           3
 STEP:         571
 O      5.263770      5.299714      5.362796
 H      5.802830      4.534410      5.098580
 H      5.104178      5.824617      4.550999
           3
 STEP:         572
 O      5.263777      5.299586      5.362761
 H      5.805079      4.536433      5.098161
 H      5.101174      5.824828      4.552372
           3
 STEP:         573
 O      5.263783      5.299460      5.362728
 H      5.807332      4.538455      5.097723
 H      5.098184      5.825016      4.553753
           3
 STEP:         574
 O      5.263787      5.299335      5.362695
 H      5.809590      4.540477      5.097266
 H      5.095208      5.825180      4.555141
           3
 STEP:         575
 O      5.263791      5.299211      5.362663
 H      5.811853      4.542496      5.096789
 H      5.092245      5.825322      4.556533
           3
 STEP:         576
 O      5.263793      5.299089      5.362632
 H      5.814120      4.544513      5.096291
 H      5.089297      5.825443      4.557927
           3
 STEP:         577
 O      5.263794      5.298968      5.362603
 H      5.816393      4.546527      5.095771
 H      5.086362      5.825544      4.559322
           3
 STEP:         578
 O      5.263793      5.298848      5.362575
 H      5.818671      4.548538      5.095229
 H      5.083442      5.825625      4.560714
           3
 STEP:         579
 O      5.263791      5.298729      5.362549
 H      5.820956      4.550545      5.094663
 H      5.080535      5.825688      4.562102
           3
 STEP:         580
 O      5.263788      5.298611      5.362525
 H      5.823247      4.552549      5.094074
 H      5.077642      5.825734      4.563484
           3
 STEP:         581
 O      5.263784      5.298494      5.362503
 H      5.825545      4.554549      5.093461
 H      5.074761      5.825764      4.564858
           3
 STEP:         582
 O      5.263779      5.298379      5.362483
 H      5.827850      4.556546      5.092824
 H      5.071893      5.825778      4.566222
           3
 STEP:         583
 O      5.263772      5.298264      5.362465
 H      5.830162      4.558540      5.092163
 H      5.069038      5.825777      4.567577
           3
 STEP:         584
 O      5.263765      5.298151      5.362448
 H      5.832481      4.560532      5.091477
 H      5.066195      5.825761      4.568919
           3
 STEP:         585
 O      5.263756      5.298039      5.362434
 H      5.834808      4.562522      5.090767
 H      5.063365      5.825731      4.570249
           3
 STEP:         586
 O      5.263746      5.297928      5.362422
 H      5.837141      4.564511      5.090031
 H      5.060547      5.825688      4.571564
           3
 STEP:         587
 O      5.263734      5.297818      5.362412
 H      5.839480      4.566499      5.089271
 H      5.057741      5.825632      4.572863
           3
 STEP:         588
 O      5.263721      5.297708      5.362406
 H      5.841826      4.568486      5.088485
 H      5.054946      5.825563      4.574144
           3
 STEP:         589
 O      5.263707      5.297600      5.362402
 H      5.844177      4.570474      5.087674
 H      5.052163      5.825484      4.575406
           3
 STEP:         590
 O      5.263691      5.297491      5.362401
 H      5.846534      4.572461      5.086837
 H      5.049391      5.825394      4.576648
           3
 STEP:         591
 O      5.263675      5.297384      5.362402
 H      5.848897      4.574449      5.085974
 H      5.046630      5.825295      4.577867
           3
 STEP:         592
 O      5.263657      5.297276      5.362407
 H      5.851265      4.576439      5.085083
 H      5.043879      5.825187      4.579063
           3
 STEP:         593
 O      5.263638      5.297169      5.362414
 H      5.853639      4.578430      5.084166
 H      5.041139      5.825070      4.580234
           3
 STEP:         594
 O      5.263618      5.297062      5.362425
 H      5.856017      4.580424      5.083222
 H      5.038410      5.824947      4.581379
           3
 STEP:         595
 O      5.263597      5.296956      5.362439
 H      5.858399      4.582420      5.082252
 H      5.035691      5.824815      4.582497
           3
 STEP:         596
 O      5.263574      5.296849      5.362457
 H      5.860786      4.584419      5.081255
 H      5.032984      5.824678      4.583587
           3
 STEP:         597
 O      5.263551      5.296743      5.362477
 H      5.863175      4.586422      5.080231
 H      5.030286      5.824534      4.584649
           3
 STEP:         598
 O      5.263527      5.296638      5.362501
 H      5.865568      4.588427      5.079182
 H      5.027600      5.824384      4.585680
           3
 STEP:         599
 O      5.263502      5.296532      5.362528
 H      5.867963      4.590437      5.078106
 H      5.024925      5.824229      4.586681
           3
 STEP:         600
 O      5.263476      5.296426      5.362559
 H      5.870359      4.592451      5.077005
 H      5.022261      5.824068      4.587651
           3
 STEP:         601
 O      5.263449      5.296321      5.362593
 H      5.872756      4.594471      5.075877
 H      5.019607      5.823903      4.588591
           3
 STEP:         602
 O      5.263421      5.296215      5.362632
 H      5.875153      4.596498      5.074723
 H      5.016965      5.823733      4.589498
           3
 STEP:         603
 O      5.263393      5.296108      5.362674
 H      5.877548      4.598533      5.073543
 H      5.014334      5.823558      4.590375
           3
 STEP:         604
 O      5.263364      5.296002      5.362719
 H      5.879941      4.600578      5.072338
 H      5.011714      5.823379      4.591219
           3
 STEP:         605
 O      5.263335      5.295895      5.362768
 H      5.882330      4.602634      5.071106
 H      5.009106      5.823195      4.592032
           3
 STEP:         606
 O      5.263305      5.295787      5.362819
 H      5.884714      4.604702      5.069848
 H      5.006507      5.823006      4.592813
           3
 STEP:         607
 O      5.263275      5.295679      5.362875
 H      5.887092      4.606785      5.068566
 H      5.003920      5.822812      4.593563
           3
 STEP:         608
 O      5.263245      5.295571      5.362933
 H      5.889464      4.608882      5.067259
 H      5.001344      5.822612      4.594281
           3
 STEP:         609
 O      5.263214      5.295462      5.362995
 H      5.891828      4.610995      5.065928
 H      4.998780      5.822408      4.594968
           3
 STEP:         610
 O      5.263183      5.295352      5.363060
 H      5.894182      4.613125      5.064575
 H      4.996226      5.822198      4.595624
           3
 STEP:         611
 O      5.263151      5.295242      5.363129
 H      5.896527      4.615272      5.063201
 H      4.993683      5.821982      4.596250
           3
 STEP:         612
 O      5.263120      5.295130      5.363200
 H      5.898860      4.617438      5.061805
 H      4.991152      5.821760      4.596846
           3
 STEP:         613
 O      5.263089      5.295018      5.363275
 H      5.901181      4.619623      5.060389
 H      4.988633      5.821531      4.597413
           3
 STEP:         614
 O      5.263058      5.294905      5.363352
 H      5.903489      4.621828      5.058953
 H      4.986127      5.821296      4.597953
           3
 STEP:         615
 O      5.263027      5.294791      5.363433
 H      5.905782      4.624056      5.057498
 H      4.983632      5.821053      4.598464
           3
 STEP:         616
 O      5.262996      5.294676      5.363516
 H      5.908059      4.626306      5.056025
 H      4.981151      5.820802      4.598949
           3
 STEP:         617
 O      5.262964      5.294560      5.363603
 H      5.910319      4.628580      5.054533
 H      4.978682      5.820543      4.599408
           3
 STEP:         618
 O      5.262933      5.294443      5.363692
 H      5.912561      4.630879      5.053024
 H      4.976226      5.820275      4.599841
           3
 STEP:         619
 O      5.262902      5.294325      5.363784
 H      5.914785      4.633203      5.051498
 H      4.973785      5.819998      4.600250
           3
 STEP:         620
 O      5.262871      5.294207      5.363878
 H      5.916990      4.635553      5.049953
 H      4.971357      5.819711      4.600635
           3
 STEP:         621
 O      5.262840      5.294087      5.363974
 H      5.919176      4.637931      5.048392
 H      4.968944      5.819413      4.600996
           3
 STEP:         622
 O      5.262809      5.293966      5.364072
 H      5.921341      4.640337      5.046813
 H      4.966546      5.819105      4.601336
           3
 STEP:         623
 O      5.262778      5.293844      5.364173
 H      5.923486      4.642772      5.045218
 H      4.964164      5.818786      4.601655
           3
 STEP:         624
 O      5.262749      5.293721      5.364275
 H      5.925610      4.645236      5.043607
 H      4.961798      5.818455      4.601955
           3
 STEP:         625
 O      5.262719      5.293597      5.364379
 H      5.927713      4.647730      5.041980
 H      4.959448      5.818112      4.602236
           3
 STEP:         626
 O      5.262691      5.293472      5.364485
 H      5.929793      4.650254      5.040340
 H      4.957114      5.817755      4.602502
           3
 STEP:         627
 O      5.262662      5.293347      5.364593
 H      5.931851      4.652808      5.038686
 H      4.954797      5.817385      4.602753
           3
 STEP:         628
 O      5.262634      5.293220      5.364701
 H      5.933885      4.655392      5.037019
 H      4.952498      5.817001      4.602992
           3
 STEP:         629
 O      5.262606      5.293093      5.364812
 H      5.935894      4.658006      5.035340
 H      4.950215      5.816602      4.603219
           3
 STEP:         630
 O      5.262579      5.292966      5.364924
 H      5.937878      4.660651      5.033650
 H      4.947949      5.816186      4.603438
           3
 STEP:         631
 O      5.262551      5.292837      5.365037
 H      5.939835      4.663325      5.031950
 H      4.945702      5.815753      4.603649
           3
 STEP:         632
 O      5.262524      5.292708      5.365152
 H      5.941766      4.666029      5.030240
 H      4.943472      5.815302      4.603854
           3
 STEP:         633
 O      5.262496      5.292578      5.365267
 H      5.943668      4.668763      5.028520
 H      4.941260      5.814833      4.604055
           3
 STEP:         634
 O      5.262469      5.292446      5.365384
 H      5.945543      4.671527      5.026791
 H      4.939067      5.814344      4.604253
           3
 STEP:         635
 O      5.262441      5.292314      5.365501
 H      5.947389      4.674322      5.025053
 H      4.936893      5.813834      4.604449
           3
 STEP:         636
 O      5.262415      5.292181      5.365619
 H      5.949206      4.677147      5.023306
 H      4.934739      5.813304      4.604645
           3
 STEP:         637
 O      5.262389      5.292046      5.365737
 H      5.950994      4.680001      5.021548
 H      4.932605      5.812752      4.604842
           3
 STEP:         638
 O      5.262363      5.291911      5.365856
 H      5.952753      4.682886      5.019782
 H      4.930490      5.812178      4.605043
           3
 STEP:         639
 O      5.262338      5.291775      5.365974
 H      5.954484      4.685801      5.018006
 H      4.928397      5.811581      4.605248
           3
 STEP:         640
 O      5.262313      5.291639      5.366093
 H      5.956185      4.688744      5.016222
 H      4.926323      5.810962      4.605458
           3
 STEP:         641
 O      5.262289      5.291502      5.366211
 H      5.957859      4.691717      5.014430
 H      4.924271      5.810319      4.605676
           3
 STEP:         642
 O      5.262265      5.291365      5.366329
 H      5.959505      4.694718      5.012631
 H      4.922241      5.809654      4.605901
           3
 STEP:         643
 O      5.262241      5.291227      5.366447
 H      5.961125      4.697747      5.010827
 H      4.920232      5.808966      4.606135
           3
 STEP:         644
 O      5.262218      5.291090      5.366565
 H      5.962718      4.700803      5.009018
 H      4.918245      5.808255      4.606379
           3
 STEP:         645
 O      5.262194      5.290953      5.366682
 H      5.964286      4.703887      5.007205
 H      4.916280      5.807521      4.606632
           3
 STEP:         646
 O      5.262172      5.290816      5.366800
 H      5.965829      4.706997      5.005389
 H      4.914337      5.806765      4.606895
           3
 STEP:         647
 O      5.262149      5.290679      5.366917
 H      5.967349      4.710133      5.003571
 H      4.912417      5.805987      4.607168
           3
 STEP:         648
 O      5.262128      5.290542      5.367033
 H      5.968845      4.713295      5.001750
 H      4.910519      5.805186      4.607451
           3
 STEP:         649
 O      5.262106      5.290405      5.367150
 H      5.970318      4.716481      4.999926
 H      4.908642      5.804365      4.607746
           3
 STEP:         650
 O      5.262085      5.290268      5.367266
 H      5.971768      4.719691      4.998101
 H      4.906787      5.803521      4.608053
           3
 STEP:         651
 O      5.262063      5.290131      5.367381
 H      5.973195      4.722925      4.996275
 H      4.904952      5.802657      4.608373
           3
 STEP:         652
 O      5.262042      5.289994      5.367495
 H      5.974599      4.726180      4.994447
 H      4.903137      5.801771      4.608707
           3
 STEP:         653
 O      5.262020      5.289857      5.367609
 H      5.975981      4.729455      4.992618
 H      4.901341      5.800864      4.609055
           3
 STEP:         654
 O      5.261999      5.289719      5.367721
 H      5.977339      4.732750      4.990788
 H      4.899565      5.799936      4.609418
           3
 STEP:         655
 O      5.261977      5.289581      5.367831
 H      5.978674      4.736063      4.988958
 H      4.897806      5.798986      4.609796
           3
 STEP:         656
 O      5.261955      5.289443      5.367941
 H      5.979987      4.739393      4.987129
 H      4.896065      5.798016      4.610190
           3
 STEP:         657
 O      5.261934      5.289305      5.368049
 H      5.981277      4.742739      4.985299
 H      4.894341      5.797026      4.610601
           3
 STEP:         658
 O      5.261912      5.289166      5.368157
 H      5.982545      4.746101      4.983470
 H      4.892633      5.796015      4.611030
           3
 STEP:         659
 O      5.261890      5.289027      5.368263
 H      5.983794      4.749477      4.981642
 H      4.890941      5.794985      4.611476
           3
 STEP:         660
 O      5.261868      5.288889      5.368368
 H      5.985024      4.752868      4.979814
 H      4.889263      5.793936      4.611940
           3
 STEP:         661
 O      5.261845      5.288750      5.368472
 H      5.986236      4.756272      4.977987
 H      4.887601      5.792868      4.612422
           3
 STEP:         662
 O      5.261822      5.288611      5.368574
 H      5.987433      4.759689      4.976160
 H      4.885952      5.791784      4.612922
           3
 STEP:         663
 O      5.261799      5.288473      5.368676
 H      5.988616      4.763119      4.974335
 H      4.884317      5.790682      4.613441
           3
 STEP:         664
 O      5.261775      5.288335      5.368776
 H      5.989788      4.766559      4.972510
 H      4.882695      5.789565      4.613976
           3
 STEP:         665
 O      5.261751      5.288197      5.368875
 H      5.990949      4.770011      4.970686
 H      4.881086      5.788434      4.614530
           3
 STEP:         666
 O      5.261728      5.288059      5.368973
 H      5.992102      4.773473      4.968864
 H      4.879489      5.787290      4.615099
           3
 STEP:         667
 O      5.261705      5.287921      5.369070
 H      5.993247      4.776945      4.967043
 H      4.877903      5.786136      4.615686
           3
 STEP:         668
 O      5.261682      5.287784      5.369165
 H      5.994387      4.780426      4.965226
 H      4.876327      5.784971      4.616287
           3
 STEP:         669
 O      5.261660      5.287647      5.369260
 H      5.995523      4.783914      4.963411
 H      4.874761      5.783798      4.616903
           3
 STEP:         670
 O      5.261637      5.287512      5.369353
 H      5.996654      4.787408      4.961600
 H      4.873203      5.782618      4.617534
           3
 STEP:         671
 O      5.261615      5.287376      5.369446
 H      5.997782      4.790907      4.959794
 H      4.871653      5.781431      4.618178
           3
 STEP:         672
 O      5.261593      5.287241      5.369537
 H      5.998908      4.794407      4.957993
 H      4.870109      5.780238      4.618834
           3
 STEP:         673
 O      5.261571      5.287107      5.369628
 H      6.000032      4.797908      4.956197
 H      4.868569      5.779040      4.619501
           3
 STEP:         674
 O      5.261549      5.286973      5.369717
 H      6.001155      4.801409      4.954408
 H      4.867032      5.777837      4.620177
           3
 STEP:         675
 O      5.261526      5.286839      5.369806
 H      6.002275      4.804907      4.952625
 H      4.865497      5.776631      4.620864
           3
 STEP:         676
 O      5.261503      5.286704      5.369893
 H      6.003394      4.808402      4.950849
 H      4.863961      5.775422      4.621558
           3
 STEP:         677
 O      5.261480      5.286570      5.369980
 H      6.004512      4.811893      4.949080
 H      4.862424      5.774211      4.622261
           3
 STEP:         678
 O      5.261457      5.286435      5.370066
 H      6.005627      4.815380      4.947318
 H      4.860883      5.772999      4.622970
           3
 STEP:         679
 O      5.261435      5.286300      5.370150
 H      6.006740      4.818861      4.945563
 H      4.859338      5.771786      4.623686
           3
 STEP:         680
 O      5.261413      5.286164      5.370233
 H      6.007852      4.822338      4.943816
 H      4.857786      5.770575      4.624407
           3
 STEP:         681
 O      5.261391      5.286029      5.370314
 H      6.008963      4.825812      4.942077
 H      4.856227      5.769365      4.625133
           3
 STEP:         682
 O      5.261370      5.285894      5.370395
 H      6.010072      4.829281      4.940346
 H      4.854660      5.768158      4.625864
           3
 STEP:         683
 O      5.261349      5.285758      5.370474
 H      6.011182      4.832748      4.938624
 H      4.853084      5.766956      4.626598
           3
 STEP:         684
 O      5.261328      5.285621      5.370553
 H      6.012293      4.836211      4.936909
 H      4.851497      5.765761      4.627335
           3
 STEP:         685
 O      5.261308      5.285485      5.370631
 H      6.013406      4.839672      4.935204
 H      4.849900      5.764574      4.628075
           3
 STEP:         686
 O      5.261288      5.285347      5.370708
 H      6.014521      4.843129      4.933508
 H      4.848290      5.763396      4.628815
           3
 STEP:         687
 O      5.261268      5.285210      5.370784
 H      6.015639      4.846584      4.931822
 H      4.846668      5.762230      4.629556
           3
 STEP:         688
 O      5.261250      5.285072      5.370859
 H      6.016761      4.850035      4.930147
 H      4.845031      5.761077      4.630296
           3
 STEP:         689
 O      5.261232      5.284934      5.370934
 H      6.017888      4.853483      4.928484
 H      4.843379      5.759936      4.631036
           3
 STEP:         690
 O      5.261215      5.284796      5.371008
 H      6.019020      4.856926      4.926834
 H      4.841710      5.758809      4.631775
           3
 STEP:         691
 O      5.261199      5.284658      5.371081
 H      6.020158      4.860365      4.925197
 H      4.840024      5.757697      4.632514
           3
 STEP:         692
 O      5.261183      5.284519      5.371154
 H      6.021302      4.863797      4.923574
 H      4.838321      5.756599      4.633251
           3
 STEP:         693
 O      5.261168      5.284379      5.371225
 H      6.022451      4.867223      4.921967
 H      4.836598      5.755516      4.633986
           3
 STEP:         694
 O      5.261153      5.284240      5.371295
 H      6.023606      4.870642      4.920376
 H      4.834856      5.754448      4.634720
           3
 STEP:         695
 O      5.261139      5.284100      5.371364
 H      6.024766      4.874053      4.918802
 H      4.833095      5.753394      4.635450
           3
 STEP:         696
 O      5.261126      5.283959      5.371432
 H      6.025930      4.877456      4.917245
 H      4.831313      5.752355      4.636178
           3
 STEP:         697
 O      5.261114      5.283817      5.371499
 H      6.027099      4.880852      4.915706
 H      4.829510      5.751330      4.636901
           3
 STEP:         698
 O      5.261103      5.283674      5.371565
 H      6.028270      4.884240      4.914185
 H      4.827685      5.750320      4.637620
           3
 STEP:         699
 O      5.261094      5.283531      5.371629
 H      6.029445      4.887620      4.912684
 H      4.825837      5.749326      4.638333
           3
 STEP:         700
 O      5.261085      5.283387      5.371693
 H      6.030623      4.890992      4.911202
 H      4.823965      5.748347      4.639041
           3
 STEP:         701
 O      5.261079      5.283242      5.371755
 H      6.031804      4.894356      4.909741
 H      4.822068      5.747385      4.639743
           3
 STEP:         702
 O      5.261074      5.283097      5.371818
 H      6.032987      4.897713      4.908300
 H      4.820146      5.746439      4.640438
           3
 STEP:         703
 O      5.261070      5.282950      5.371879
 H      6.034174      4.901063      4.906881
 H      4.818196      5.745511      4.641129
           3
 STEP:         704
 O      5.261067      5.282802      5.371939
 H      6.035362      4.904406      4.905483
 H      4.816220      5.744600      4.641814
           3
 STEP:         705
 O      5.261067      5.282653      5.371997
 H      6.036551      4.907743      4.904106
 H      4.814216      5.743708      4.642494
           3
 STEP:         706
 O      5.261068      5.282504      5.372055
 H      6.037740      4.911075      4.902751
 H      4.812186      5.742833      4.643171
           3
 STEP:         707
 O      5.261071      5.282353      5.372110
 H      6.038928      4.914402      4.901417
 H      4.810129      5.741977      4.643844
           3
 STEP:         708
 O      5.261076      5.282202      5.372164
 H      6.040114      4.917724      4.900106
 H      4.808045      5.741138      4.644514
           3
 STEP:         709
 O      5.261082      5.282051      5.372217
 H      6.041296      4.921042      4.898816
 H      4.805934      5.740318      4.645183
           3
 STEP:         710
 O      5.261091      5.281899      5.372267
 H      6.042475      4.924357      4.897550
 H      4.803798      5.739514      4.645850
           3
 STEP:         711
 O      5.261101      5.281746      5.372316
 H      6.043648      4.927669      4.896307
 H      4.801637      5.738728      4.646516
           3
 STEP:         712
 O      5.261114      5.281593      5.372364
 H      6.044816      4.930978      4.895089
 H      4.799451      5.737958      4.647182
           3
 STEP:         713
 O      5.261128      5.281439      5.372409
 H      6.045978      4.934286      4.893896
 H      4.797241      5.737204      4.647849
           3
 STEP:         714
 O      5.261143      5.281285      5.372453
 H      6.047133      4.937591      4.892731
 H      4.795007      5.736464      4.648518
           3
 STEP:         715
 O      5.261161      5.281130      5.372494
 H      6.048280      4.940894      4.891593
 H      4.792750      5.735738      4.649190
           3
 STEP:         716
 O      5.261181      5.280974      5.372533
 H      6.049419      4.944195      4.890485
 H      4.790471      5.735024      4.649866
           3
 STEP:         717
 O      5.261202      5.280817      5.372570
 H      6.050548      4.947493      4.889406
 H      4.788171      5.734321      4.650549
           3
 STEP:         718
 O      5.261224      5.280660      5.372604
 H      6.051667      4.950790      4.888358
 H      4.785850      5.733628      4.651238
           3
 STEP:         719
 O      5.261249      5.280502      5.372636
 H      6.052775      4.954085      4.887341
 H      4.783509      5.732944      4.651936
           3
 STEP:         720
 O      5.261275      5.280344      5.372665
 H      6.053872      4.957378      4.886355
 H      4.781150      5.732267      4.652643
           3
 STEP:         721
 O      5.261302      5.280185      5.372692
 H      6.054956      4.960669      4.885401
 H      4.778772      5.731598      4.653360
           3
 STEP:         722
 O      5.261331      5.280025      5.372716
 H      6.056027      4.963959      4.884478
 H      4.776377      5.730935      4.654087
           3
 STEP:         723
 O      5.261361      5.279864      5.372738
 H      6.057086      4.967249      4.883586
 H      4.773966      5.730277      4.654826
           3
 STEP:         724
 O      5.261393      5.279704      5.372757
 H      6.058130      4.970538      4.882724
 H      4.771539      5.729624      4.655578
           3
 STEP:         725
 O      5.261426      5.279542      5.372773
 H      6.059161      4.973827      4.881892
 H      4.769098      5.728975      4.656343
           3
 STEP:         726
 O      5.261461      5.279380      5.372786
 H      6.060179      4.977117      4.881090
 H      4.766643      5.728330      4.657122
           3
 STEP:         727
 O      5.261498      5.279219      5.372797
 H      6.061182      4.980407      4.880318
 H      4.764177      5.727688      4.657917
           3
 STEP:         728
 O      5.261537      5.279057      5.372804
 H      6.062172      4.983698      4.879575
 H      4.761700      5.727049      4.658729
           3
 STEP:         729
 O      5.261577      5.278895      5.372809
 H      6.063148      4.986989      4.878862
 H      4.759213      5.726412      4.659559
           3
 STEP:         730
 O      5.261619      5.278734      5.372810
 H      6.064110      4.990281      4.878178
 H      4.756718      5.725775      4.660407
           3
 STEP:         731
 O      5.261663      5.278572      5.372808
 H      6.065056      4.993573      4.877524
 H      4.754216      5.725139      4.661274
           3
 STEP:         732
 O      5.261708      5.278410      5.372802
 H      6.065986      4.996866      4.876898
 H      4.751707      5.724501      4.662162
           3
 STEP:         733
 O      5.261756      5.278248      5.372793
 H      6.066900      5.000159      4.876302
 H      4.749193      5.723861      4.663072
           3
 STEP:         734
 O      5.261804      5.278086      5.372780
 H      6.067797      5.003453      4.875735
 H      4.746674      5.723218      4.664003
           3
 STEP:         735
 O      5.261855      5.277924      5.372764
 H      6.068675      5.006749      4.875197
 H      4.744151      5.722571      4.664958
           3
 STEP:         736
 O      5.261906      5.277762      5.372744
 H      6.069536      5.010045      4.874689
 H      4.741625      5.721919      4.665937
           3
 STEP:         737
 O      5.261959      5.277600      5.372721
 H      6.070378      5.013343      4.874210
 H      4.739097      5.721261      4.666942
           3
 STEP:         738
 O      5.262013      5.277439      5.372694
 H      6.071201      5.016641      4.873760
 H      4.736568      5.720596      4.667974
           3
 STEP:         739
 O      5.262067      5.277278      5.372664
 H      6.072004      5.019941      4.873338
 H      4.734039      5.719923      4.669034
           3
 STEP:         740
 O      5.262122      5.277118      5.372631
 H      6.072787      5.023243      4.872945
 H      4.731512      5.719241      4.670123
           3
 STEP:         741
 O      5.262177      5.276958      5.372594
 H      6.073549      5.026547      4.872580
 H      4.728988      5.718548      4.671243
           3
 STEP:         742
 O      5.262233      5.276799      5.372554
 H      6.074291      5.029853      4.872241
 H      4.726469      5.717844      4.672394
           3
 STEP:         743
 O      5.262290      5.276639      5.372511
 H      6.075012      5.033162      4.871929
 H      4.723955      5.717126      4.673577
           3
 STEP:         744
 O      5.262347      5.276480      5.372463
 H      6.075713      5.036473      4.871642
 H      4.721449      5.716395      4.674792
           3
 STEP:         745
 O      5.262405      5.276321      5.372413
 H      6.076394      5.039788      4.871380
 H      4.718953      5.715649      4.676039
           3
 STEP:         746
 O      5.262463      5.276163      5.372358
 H      6.077057      5.043105      4.871141
 H      4.716467      5.714889      4.677318
           3
 STEP:         747
 O      5.262520      5.276006      5.372301
 H      6.077702      5.046424      4.870924
 H      4.713994      5.714114      4.678630
           3
 STEP:         748
 O      5.262578      5.275849      5.372239
 H      6.078331      5.049745      4.870730
 H      4.711534      5.713324      4.679975
           3
 STEP:         749
 O      5.262636      5.275693      5.372174
 H      6.078943      5.053068      4.870556
 H      4.709089      5.712520      4.681352
           3
 STEP:         750
 O      5.262695      5.275538      5.372106
 H      6.079541      5.056391      4.870402
 H      4.706659      5.711701      4.682761
           3
 STEP:         751
 O      5.262753      5.275384      5.372034
 H      6.080124      5.059716      4.870268
 H      4.704246      5.710868      4.684203
           3
 STEP:         752
 O      5.262812      5.275230      5.371959
 H      6.080693      5.063041      4.870152
 H      4.701849      5.710021      4.685676
           3
 STEP:         753
 O      5.262871      5.275078      5.371881
 H      6.081250      5.066367      4.870053
 H      4.699470      5.709160      4.687180
           3
 STEP:         754
 O      5.262930      5.274926      5.371799
 H      6.081794      5.069693      4.869971
 H      4.697107      5.708284      4.688716
           3
 STEP:         755
 O      5.262988      5.274775      5.371714
 H      6.082327      5.073019      4.869904
 H      4.694763      5.707392      4.690283
           3
 STEP:         756
 O      5.263047      5.274624      5.371626
 H      6.082849      5.076346      4.869852
 H      4.692435      5.706485      4.691881
           3
 STEP:         757
 O      5.263104      5.274475      5.371535
 H      6.083361      5.079673      4.869813
 H      4.690124      5.705561      4.693509
           3
 STEP:         758
 O      5.263162      5.274326      5.371442
 H      6.083862      5.082999      4.869788
 H      4.687831      5.704622      4.695166
           3
 STEP:         759
 O      5.263218      5.274178      5.371347
 H      6.084355      5.086325      4.869775
 H      4.685554      5.703667      4.696852
           3
 STEP:         760
 O      5.263274      5.274031      5.371250
 H      6.084838      5.089650      4.869773
 H      4.683295      5.702698      4.698565
           3
 STEP:         761
 O      5.263330      5.273884      5.371151
 H      6.085312      5.092976      4.869781
 H      4.681052      5.701714      4.700304
           3
 STEP:         762
 O      5.263386      5.273738      5.371050
 H      6.085778      5.096301      4.869798
 H      4.678828      5.700716      4.702069
           3
 STEP:         763
 O      5.263441      5.273593      5.370947
 H      6.086234      5.099629      4.869823
 H      4.676620      5.699705      4.703858
           3
 STEP:         764
 O      5.263496      5.273449      5.370841
 H      6.086682      5.102958      4.869855
 H      4.674430      5.698681      4.705670
           3
 STEP:         765
 O      5.263550      5.273305      5.370734
 H      6.087122      5.106291      4.869893
 H      4.672258      5.697645      4.707504
           3
 STEP:         766
 O      5.263604      5.273161      5.370625
 H      6.087554      5.109627      4.869937
 H      4.670102      5.696596      4.709360
           3
 STEP:         767
 O      5.263657      5.273019      5.370514
 H      6.087978      5.112966      4.869985
 H      4.667964      5.695535      4.711237
           3
 STEP:         768
 O      5.263709      5.272877      5.370401
 H      6.088395      5.116308      4.870038
 H      4.665844      5.694462      4.713133
           3
 STEP:         769
 O      5.263760      5.272735      5.370287
 H      6.088805      5.119654      4.870094
 H      4.663741      5.693376      4.715048
           3
 STEP:         770
 O      5.263809      5.272594      5.370171
 H      6.089210      5.123002      4.870152
 H      4.661656      5.692278      4.716980
           3
 STEP:         771
 O      5.263858      5.272453      5.370055
 H      6.089609      5.126351      4.870210
 H      4.659587      5.691169      4.718928
           3
 STEP:         772
 O      5.263906      5.272312      5.369938
 H      6.090005      5.129704      4.870269
 H      4.657534      5.690048      4.720890
           3
 STEP:         773
 O      5.263953      5.272172      5.369820
 H      6.090397      5.133058      4.870325
 H      4.655498      5.688918      4.722864
           3
 STEP:         774
 O      5.263999      5.272031      5.369701
 H      6.090787      5.136414      4.870379
 H      4.653476      5.687779      4.724849
           3
 STEP:         775
 O      5.264045      5.271891      5.369582
 H      6.091175      5.139771      4.870430
 H      4.651468      5.686630      4.726843
           3
 STEP:         776
 O      5.264089      5.271752      5.369463
 H      6.091563      5.143130      4.870476
 H      4.649474      5.685474      4.728846
           3
 STEP:         777
 O      5.264133      5.271613      5.369343
 H      6.091950      5.146491      4.870517
 H      4.647494      5.684310      4.730855
           3
 STEP:         778
 O      5.264176      5.271474      5.369224
 H      6.092339      5.149852      4.870552
 H      4.645527      5.683140      4.732870
           3
 STEP:         779
 O      5.264217      5.271335      5.369104
 H      6.092729      5.153215      4.870580
 H      4.643572      5.681962      4.734889
           3
 STEP:         780
 O      5.264258      5.271196      5.368985
 H      6.093121      5.156578      4.870599
 H      4.641630      5.680780      4.736910
           3
 STEP:         781
 O      5.264298      5.271058      5.368867
 H      6.093514      5.159943      4.870608
 H      4.639699      5.679593      4.738932
           3
 STEP:         782
 O      5.264337      5.270919      5.368749
 H      6.093909      5.163309      4.870607
 H      4.637781      5.678403      4.740953
           3
 STEP:         783
 O      5.264376      5.270781      5.368632
 H      6.094305      5.166677      4.870595
 H      4.635874      5.677212      4.742970
           3
 STEP:         784
 O      5.264414      5.270642      5.368515
 H      6.094702      5.170047      4.870573
 H      4.633978      5.676021      4.744982
           3
 STEP:         785
 O      5.264453      5.270502      5.368399
 H      6.095099      5.173420      4.870539
 H      4.632092      5.674830      4.746988
           3
 STEP:         786
 O      5.264491      5.270362      5.368284
 H      6.095497      5.176795      4.870494
 H      4.630215      5.673641      4.748985
           3
 STEP:         787
 O      5.264530      5.270222      5.368170
 H      6.095895      5.180173      4.870438
 H      4.628346      5.672454      4.750974
           3
 STEP:         788
 O      5.264568      5.270081      5.368058
 H      6.096293      5.183554      4.870371
 H      4.626483      5.671270      4.752952
           3
 STEP:         789
 O      5.264606      5.269940      5.367947
 H      6.096691      5.186940      4.870291
 H      4.624626      5.670090      4.754917
           3
 STEP:         790
 O      5.264644      5.269798      5.367837
 H      6.097088      5.190330      4.870199
 H      4.622772      5.668915      4.756868
           3
 STEP:         791
 O      5.264682      5.269655      5.367729
 H      6.097485      5.193725      4.870093
 H      4.620920      5.667745      4.758803
           3
 STEP:         792
 O      5.264719      5.269511      5.367624
 H      6.097881      5.197127      4.869975
 H      4.619068      5.666581      4.760722
           3
 STEP:         793
 O      5.264757      5.269366      5.367521
 H      6.098274      5.200536      4.869844
 H      4.617216      5.665422      4.762622
           3
 STEP:         794
 O      5.264794      5.269221      5.367420
 H      6.098664      5.203952      4.869700
 H      4.615361      5.664270      4.764502
           3
 STEP:         795
 O      5.264832      5.269074      5.367321
 H      6.099048      5.207376      4.869543
 H      4.613505      5.663125      4.766363
           3
 STEP:         796
 O      5.264870      5.268926      5.367224
 H      6.099427      5.210807      4.869375
 H      4.611645      5.661987      4.768202
           3
 STEP:         797
 O      5.264908      5.268778      5.367129
 H      6.099797      5.214246      4.869193
 H      4.609783      5.660856      4.770019
           3
 STEP:         798
 O      5.264946      5.268628      5.367036
 H      6.100159      5.217693      4.868999
 H      4.607919      5.659733      4.771813
           3
 STEP:         799
 O      5.264985      5.268477      5.366945
 H      6.100511      5.221146      4.868791
 H      4.606052      5.658618      4.773583
           3
 STEP:         800
 O      5.265023      5.268325      5.366856
 H      6.100852      5.224608      4.868569
 H      4.604183      5.657512      4.775329
           3
 STEP:         801
 O      5.265062      5.268172      5.366769
 H      6.101182      5.228076      4.868332
 H      4.602311      5.656416      4.777048
           3
 STEP:         802
 O      5.265101      5.268018      5.366684
 H      6.101500      5.231553      4.868081
 H      4.600439      5.655329      4.778742
           3
 STEP:         803
 O      5.265141      5.267863      5.366602
 H      6.101806      5.235038      4.867814
 H      4.598565      5.654252      4.780409
           3
 STEP:         804
 O      5.265182      5.267706      5.366522
 H      6.102099      5.238530      4.867534
 H      4.596690      5.653185      4.782048
           3
 STEP:         805
 O      5.265224      5.267548      5.366444
 H      6.102381      5.242031      4.867239
 H      4.594815      5.652130      4.783659
           3
 STEP:         806
 O      5.265268      5.267389      5.366369
 H      6.102650      5.245539      4.866930
 H      4.592940      5.651085      4.785242
           3
 STEP:         807
 O      5.265312      5.267228      5.366297
 H      6.102905      5.249056      4.866608
 H      4.591066      5.650053      4.786796
           3
 STEP:         808
 O      5.265358      5.267066      5.366227
 H      6.103147      5.252581      4.866273
 H      4.589193      5.649033      4.788320
           3
 STEP:         809
 O      5.265405      5.266903      5.366161
 H      6.103375      5.256115      4.865925
 H      4.587320      5.648025      4.789816
           3
 STEP:         810
 O      5.265453      5.266739      5.366097
 H      6.103586      5.259658      4.865564
 H      4.585450      5.647029      4.791282
           3
 STEP:         811
 O      5.265503      5.266574      5.366035
 H      6.103781      5.263209      4.865192
 H      4.583580      5.646045      4.792719
           3
 STEP:         812
 O      5.265555      5.266407      5.365976
 H      6.103957      5.266769      4.864808
 H      4.581714      5.645073      4.794127
           3
 STEP:         813
 O      5.265607      5.266239      5.365920
 H      6.104113      5.270337      4.864415
 H      4.579850      5.644112      4.795507
           3
 STEP:         814
 O      5.265661      5.266070      5.365866
 H      6.104246      5.273913      4.864011
 H      4.577990      5.643160      4.796858
           3
 STEP:         815
 O      5.265717      5.265899      5.365813
 H      6.104357      5.277497      4.863599
 H      4.576134      5.642218      4.798181
           3
 STEP:         816
 O      5.265773      5.265726      5.365763
 H      6.104442      5.281090      4.863177
 H      4.574282      5.641286      4.799477
           3
 STEP:         817
 O      5.265830      5.265553      5.365715
 H      6.104501      5.284691      4.862748
 H      4.572437      5.640361      4.800747
           3
 STEP:         818
 O      5.265889      5.265378      5.365669
 H      6.104532      5.288301      4.862310
 H      4.570597      5.639445      4.801991
           3
 STEP:         819
 O      5.265947      5.265202      5.365626
 H      6.104534      5.291920      4.861863
 H      4.568764      5.638537      4.803211
           3
 STEP:         820
 O      5.266007      5.265025      5.365585
 H      6.104506      5.295551      4.861408
 H      4.566938      5.637636      4.804407
           3
 STEP:         821
 O      5.266067      5.264846      5.365545
 H      6.104445      5.299192      4.860944
 H      4.565120      5.636743      4.805581
           3
 STEP:         822
 O      5.266129      5.264667      5.365508
 H      6.104352      5.302844      4.860472
 H      4.563310      5.635857      4.806732
           3
 STEP:         823
 O      5.266191      5.264486      5.365473
 H      6.104224      5.306509      4.859991
 H      4.561511      5.634978      4.807862
           3
 STEP:         824
 O      5.266255      5.264304      5.365439
 H      6.104062      5.310184      4.859501
 H      4.559723      5.634106      4.808972
           3
 STEP:         825
 O      5.266320      5.264121      5.365407
 H      6.103865      5.313871      4.859003
 H      4.557948      5.633240      4.810061
           3
 STEP:         826
 O      5.266386      5.263937      5.365377
 H      6.103632      5.317569      4.858497
 H      4.556189      5.632380      4.811130
           3
 STEP:         827
 O      5.266453      5.263752      5.365348
 H      6.103363      5.321277      4.857983
 H      4.554446      5.631525      4.812181
           3
 STEP:         828
 O      5.266521      5.263565      5.365320
 H      6.103058      5.324993      4.857462
 H      4.552722      5.630675      4.813214
           3
 STEP:         829
 O      5.266591      5.263378      5.365294
 H      6.102717      5.328718      4.856935
 H      4.551018      5.629829      4.814229
           3
 STEP:         830
 O      5.266661      5.263191      5.365269
 H      6.102339      5.332451      4.856401
 H      4.549336      5.628987      4.815228
           3
 STEP:         831
 O      5.266733      5.263002      5.365244
 H      6.101926      5.336191      4.855861
 H      4.547676      5.628148      4.816212
           3
 STEP:         832
 O      5.266806      5.262813      5.365221
 H      6.101477      5.339937      4.855317
 H      4.546040      5.627312      4.817181
           3
 STEP:         833
 O      5.266880      5.262623      5.365199
 H      6.100992      5.343690      4.854768
 H      4.544429      5.626477      4.818136
           3
 STEP:         834
 O      5.266954      5.262432      5.365178
 H      6.100471      5.347450      4.854215
 H      4.542842      5.625645      4.819077
           3
 STEP:         835
 O      5.267030      5.262241      5.365158
 H      6.099914      5.351215      4.853660
 H      4.541283      5.624813      4.820006
           3
 STEP:         836
 O      5.267106      5.262048      5.365140
 H      6.099322      5.354988      4.853102
 H      4.539750      5.623982      4.820923
           3
 STEP:         837
 O      5.267182      5.261855      5.365122
 H      6.098692      5.358768      4.852542
 H      4.538245      5.623150      4.821830
           3
 STEP:         838
 O      5.267259      5.261660      5.365106
 H      6.098026      5.362555      4.851980
 H      4.536769      5.622318      4.822727
           3
 STEP:         839
 O      5.267336      5.261465      5.365090
 H      6.097322      5.366351      4.851416
 H      4.535323      5.621485      4.823616
           3
 STEP:         840
 O      5.267413      5.261269      5.365075
 H      6.096579      5.370155      4.850851
 H      4.533908      5.620651      4.824497
           3
 STEP:         841
 O      5.267491      5.261073      5.365060
 H      6.095798      5.373967      4.850284
 H      4.532526      5.619814      4.825372
           3
 STEP:         842
 O      5.267569      5.260877      5.365046
 H      6.094977      5.377787      4.849715
 H      4.531177      5.618975      4.826242
           3
 STEP:         843
 O      5.267648      5.260680      5.365032
 H      6.094118      5.381614      4.849145
 H      4.529861      5.618132      4.827106
           3
 STEP:         844
 O      5.267726      5.260483      5.365018
 H      6.093220      5.385448      4.848573
 H      4.528581      5.617286      4.827967
           3
 STEP:         845
 O      5.267805      5.260286      5.365005
 H      6.092283      5.389289      4.848001
 H      4.527336      5.616436      4.828824
           3
 STEP:         846
 O      5.267885      5.260089      5.364992
 H      6.091309      5.393135      4.847426
 H      4.526127      5.615581      4.829680
           3
 STEP:         847
 O      5.267964      5.259892      5.364979
 H      6.090298      5.396987      4.846850
 H      4.524955      5.614722      4.830534
           3
 STEP:         848
 O      5.268043      5.259695      5.364967
 H      6.089250      5.400845      4.846272
 H      4.523820      5.613858      4.831389
           3
 STEP:         849
 O      5.268122      5.259498      5.364955
 H      6.088166      5.404709      4.845692
 H      4.522722      5.612988      4.832244
           3
 STEP:         850
 O      5.268200      5.259301      5.364942
 H      6.087047      5.408577      4.845110
 H      4.521662      5.612112      4.833101
           3
 STEP:         851
 O      5.268278      5.259103      5.364930
 H      6.085893      5.412451      4.844525
 H      4.520638      5.611231      4.833961
           3
 STEP:         852
 O      5.268356      5.258906      5.364917
 H      6.084706      5.416329      4.843937
 H      4.519651      5.610344      4.834824
           3
 STEP:         853
 O      5.268434      5.258709      5.364904
 H      6.083485      5.420210      4.843348
 H      4.518700      5.609451      4.835691
           3
 STEP:         854
 O      5.268511      5.258511      5.364890
 H      6.082231      5.424094      4.842757
 H      4.517785      5.608554      4.836561
           3
 STEP:         855
 O      5.268589      5.258314      5.364877
 H      6.080946      5.427982      4.842165
 H      4.516905      5.607652      4.837435
           3
 STEP:         856
 O      5.268667      5.258116      5.364863
 H      6.079630      5.431872      4.841573
 H      4.516060      5.606746      4.838311
           3
 STEP:         857
 O      5.268744      5.257918      5.364850
 H      6.078284      5.435764      4.840981
 H      4.515249      5.605837      4.839191
           3
 STEP:         858
 O      5.268822      5.257720      5.364836
 H      6.076907      5.439660      4.840389
 H      4.514472      5.604924      4.840073
           3
 STEP:         859
 O      5.268900      5.257521      5.364822
 H      6.075502      5.443558      4.839798
 H      4.513728      5.604007      4.840958
           3
 STEP:         860
 O      5.268977      5.257323      5.364808
 H      6.074069      5.447459      4.839208
 H      4.513015      5.603087      4.841846
           3
 STEP:         861
 O      5.269055      5.257125      5.364793
 H      6.072610      5.451364      4.838619
 H      4.512333      5.602162      4.842738
           3
 STEP:         862
 O      5.269132      5.256927      5.364779
 H      6.071126      5.455271      4.838030
 H      4.511682      5.601232      4.843634
           3
 STEP:         863
 O      5.269208      5.256729      5.364764
 H      6.069618      5.459181      4.837443
 H      4.511059      5.600297      4.844534
           3
 STEP:         864
 O      5.269283      5.256531      5.364749
 H      6.068088      5.463092      4.836856
 H      4.510464      5.599357      4.845437
           3
 STEP:         865
 O      5.269358      5.256333      5.364734
 H      6.066536      5.467006      4.836271
 H      4.509896      5.598412      4.846343
           3
 STEP:         866
 O      5.269432      5.256135      5.364719
 H      6.064964      5.470920      4.835687
 H      4.509353      5.597462      4.847252
           3
 STEP:         867
 O      5.269506      5.255937      5.364705
 H      6.063372      5.474836      4.835103
 H      4.508834      5.596508      4.848165
           3
 STEP:         868
 O      5.269579      5.255739      5.364690
 H      6.061760      5.478752      4.834521
 H      4.508337      5.595551      4.849080
           3
 STEP:         869
 O      5.269652      5.255540      5.364675
 H      6.060131      5.482668      4.833941
 H      4.507862      5.594590      4.849997
           3
 STEP:         870
 O      5.269725      5.255342      5.364659
 H      6.058484      5.486586      4.833362
 H      4.507407      5.593626      4.850918
           3
 STEP:         871
 O      5.269799      5.255144      5.364643
 H      6.056821      5.490504      4.832785
 H      4.506972      5.592659      4.851841
           3
 STEP:         872
 O      5.269873      5.254946      5.364626
 H      6.055144      5.494423      4.832210
 H      4.506555      5.591691      4.852767
           3
 STEP:         873
 O      5.269947      5.254748      5.364608
 H      6.053452      5.498343      4.831637
 H      4.506154      5.590719      4.853696
           3
 STEP:         874
 O      5.270021      5.254550      5.364590
 H      6.051749      5.502263      4.831065
 H      4.505769      5.589745      4.854626
           3
 STEP:         875
 O      5.270095      5.254353      5.364571
 H      6.050034      5.506184      4.830495
 H      4.505398      5.588769      4.855557
           3
 STEP:         876
 O      5.270169      5.254155      5.364552
 H      6.048309      5.510104      4.829927
 H      4.505037      5.587792      4.856490
           3
 STEP:         877
 O      5.270244      5.253958      5.364533
 H      6.046573      5.514022      4.829362
 H      4.504685      5.586813      4.857423
           3
 STEP:         878
 O      5.270320      5.253761      5.364514
 H      6.044829      5.517939      4.828799
 H      4.504338      5.585834      4.858355
           3
 STEP:         879
 O      5.270396      5.253564      5.364494
 H      6.043075      5.521853      4.828241
 H      4.503994      5.584854      4.859286
           3
 STEP:         880
 O      5.270473      5.253367      5.364475
 H      6.041312      5.525765      4.827686
 H      4.503650      5.583875      4.860217
           3
 STEP:         881
 O      5.270550      5.253169      5.364455
 H      6.039542      5.529674      4.827135
 H      4.503304      5.582897      4.861146
           3
 STEP:         882
 O      5.270627      5.252972      5.364434
 H      6.037764      5.533580      4.826589
 H      4.502953      5.581921      4.862074
           3
 STEP:         883
 O      5.270705      5.252775      5.364414
 H      6.035978      5.537482      4.826047
 H      4.502596      5.580946      4.863001
           3
 STEP:         884
 O      5.270783      5.252578      5.364394
 H      6.034186      5.541382      4.825511
 H      4.502230      5.579973      4.863926
           3
 STEP:         885
 O      5.270862      5.252380      5.364373
 H      6.032388      5.545278      4.824982
 H      4.501853      5.579003      4.864849
           3
 STEP:         886
 O      5.270941      5.252183      5.364352
 H      6.030584      5.549171      4.824459
 H      4.501464      5.578034      4.865770
           3
 STEP:         887
 O      5.271022      5.251986      5.364331
 H      6.028774      5.553059      4.823945
 H      4.501060      5.577068      4.866688
           3
 STEP:         888
 O      5.271104      5.251788      5.364309
 H      6.026961      5.556943      4.823439
 H      4.500642      5.576105      4.867603
           3
 STEP:         889
 O      5.271187      5.251591      5.364286
 H      6.025144      5.560822      4.822942
 H      4.500207      5.575145      4.868515
           3
 STEP:         890
 O      5.271271      5.251394      5.364263
 H      6.023326      5.564695      4.822456
 H      4.499754      5.574188      4.869423
           3
 STEP:         891
 O      5.271356      5.251198      5.364240
 H      6.021507      5.568561      4.821979
 H      4.499283      5.573234      4.870327
           3
 STEP:         892
 O      5.271442      5.251001      5.364216
 H      6.019688      5.572421      4.821512
 H      4.498792      5.572284      4.871227
           3
 STEP:         893
 O      5.271530      5.250805      5.364191
 H      6.017870      5.576272      4.821056
 H      4.498281      5.571338      4.872123
           3
 STEP:         894
 O      5.271619      5.250610      5.364165
 H      6.016054      5.580114      4.820611
 H      4.497748      5.570395      4.873014
           3
 STEP:         895
 O      5.271709      5.250414      5.364140
 H      6.014240      5.583948      4.820178
 H      4.497192      5.569456      4.873900
           3
 STEP:         896
 O      5.271802      5.250218      5.364113
 H      6.012428      5.587773      4.819757
 H      4.496612      5.568520      4.874782
           3
 STEP:         897
 O      5.271896      5.250022      5.364086
 H      6.010619      5.591589      4.819348
 H      4.496006      5.567586      4.875660
           3
 STEP:         898
 O      5.271992      5.249827      5.364059
 H      6.008812      5.595397      4.818953
 H      4.495373      5.566655      4.876534
           3
 STEP:         899
 O      5.272089      5.249632      5.364032
 H      6.007008      5.599198      4.818572
 H      4.494713      5.565726      4.877404
           3
 STEP:         900
 O      5.272188      5.249438      5.364004
 H      6.005206      5.602992      4.818204
 H      4.494023      5.564799      4.878271
           3
 STEP:         901
 O      5.272288      5.249244      5.363975
 H      6.003406      5.606779      4.817852
 H      4.493303      5.563874      4.879135
           3
 STEP:         902
 O      5.272390      5.249051      5.363945
 H      6.001607      5.610557      4.817514
 H      4.492552      5.562950      4.879995
           3
 STEP:         903
 O      5.272494      5.248859      5.363915
 H      5.999811      5.614327      4.817193
 H      4.491768      5.562027      4.880853
           3
 STEP:         904
 O      5.272601      5.248667      5.363883
 H      5.998017      5.618087      4.816887
 H      4.490951      5.561106      4.881708
           3
 STEP:         905
 O      5.272710      5.248476      5.363851
 H      5.996224      5.621837      4.816599
 H      4.490101      5.560185      4.882560
           3
 STEP:         906
 O      5.272820      5.248286      5.363817
 H      5.994433      5.625574      4.816329
 H      4.489216      5.559266      4.883410
           3
 STEP:         907
 O      5.272933      5.248096      5.363781
 H      5.992644      5.629298      4.816078
 H      4.488296      5.558347      4.884257
           3
 STEP:         908
 O      5.273048      5.247907      5.363745
 H      5.990856      5.633008      4.815846
 H      4.487343      5.557429      4.885104
           3
 STEP:         909
 O      5.273164      5.247719      5.363706
 H      5.989070      5.636704      4.815635
 H      4.486355      5.556512      4.885950
           3
 STEP:         910
 O      5.273283      5.247533      5.363666
 H      5.987285      5.640384      4.815445
 H      4.485333      5.555595      4.886798
           3
 STEP:         911
 O      5.273403      5.247347      5.363624
 H      5.985501      5.644048      4.815277
 H      4.484278      5.554676      4.887646
           3
 STEP:         912
 O      5.273524      5.247162      5.363580
 H      5.983718      5.647697      4.815132
 H      4.483191      5.553755      4.888498
           3
 STEP:         913
 O      5.273648      5.246979      5.363534
 H      5.981935      5.651330      4.815009
 H      4.482071      5.552831      4.889353
           3
 STEP:         914
 O      5.273773      5.246797      5.363486
 H      5.980153      5.654947      4.814909
 H      4.480920      5.551903      4.890213
           3
 STEP:         915
 O      5.273899      5.246616      5.363437
 H      5.978372      5.658549      4.814834
 H      4.479739      5.550970      4.891078
           3
 STEP:         916
 O      5.274026      5.246436      5.363386
 H      5.976592      5.662134      4.814783
 H      4.478529      5.550031      4.891949
           3
 STEP:         917
 O      5.274155      5.246258      5.363334
 H      5.974812      5.665703      4.814758
 H      4.477291      5.549086      4.892827
           3
 STEP:         918
 O      5.274284      5.246081      5.363280
 H      5.973034      5.669253      4.814759
 H      4.476027      5.548135      4.893712
           3
 STEP:         919
 O      5.274416      5.245905      5.363224
 H      5.971255      5.672785      4.814785
 H      4.474738      5.547177      4.894606
           3
 STEP:         920
 O      5.274548      5.245732      5.363166
 H      5.969478      5.676297      4.814839
 H      4.473426      5.546211      4.895507
           3
 STEP:         921
 O      5.274682      5.245559      5.363105
 H      5.967702      5.679789      4.814920
 H      4.472091      5.545238      4.896418
           3
 STEP:         922
 O      5.274818      5.245389      5.363041
 H      5.965927      5.683259      4.815029
 H      4.470734      5.544258      4.897339
           3
 STEP:         923
 O      5.274955      5.245221      5.362974
 H      5.964153      5.686706      4.815166
 H      4.469358      5.543269      4.898271
           3
 STEP:         924
 O      5.275094      5.245054      5.362905
 H      5.962381      5.690131      4.815332
 H      4.467963      5.542271      4.899214
           3
 STEP:         925
 O      5.275235      5.244889      5.362833
 H      5.960611      5.693532      4.815526
 H      4.466552      5.541264      4.900170
           3
 STEP:         926
 O      5.275376      5.244727      5.362758
 H      5.958842      5.696911      4.815748
 H      4.465124      5.540246      4.901139
           3
 STEP:         927
 O      5.275519      5.244566      5.362681
 H      5.957074      5.700268      4.815999
 H      4.463682      5.539217      4.902124
           3
 STEP:         928
 O      5.275663      5.244409      5.362600
 H      5.955307      5.703602      4.816279
 H      4.462226      5.538174      4.903124
           3
 STEP:         929
 O      5.275809      5.244253      5.362517
 H      5.953540      5.706915      4.816587
 H      4.460758      5.537117      4.904143
           3
 STEP:         930
 O      5.275955      5.244100      5.362431
 H      5.951773      5.710207      4.816924
 H      4.459281      5.536044      4.905180
           3
 STEP:         931
 O      5.276101      5.243948      5.362342
 H      5.950006      5.713478      4.817289
 H      4.457794      5.534954      4.906237
           3
 STEP:         932
 O      5.276247      5.243800      5.362250
 H      5.948237      5.716729      4.817681
 H      4.456301      5.533845      4.907316
           3
 STEP:         933
 O      5.276393      5.243654      5.362156
 H      5.946468      5.719960      4.818102
 H      4.454803      5.532718      4.908417
           3
 STEP:         934
 O      5.276538      5.243511      5.362058
 H      5.944697      5.723171      4.818550
 H      4.453302      5.531569      4.909542
           3
 STEP:         935
 O      5.276683      5.243370      5.361957
 H      5.942925      5.726363      4.819026
 H      4.451800      5.530400      4.910691
           3
 STEP:         936
 O      5.276827      5.243232      5.361853
 H      5.941152      5.729534      4.819530
 H      4.450299      5.529210      4.911866
           3
 STEP:         937
 O      5.276970      5.243097      5.361745
 H      5.939378      5.732684      4.820062
 H      4.448801      5.527998      4.913066
           3
 STEP:         938
 O      5.277114      5.242964      5.361633
 H      5.937604      5.735812      4.820622
 H      4.447306      5.526766      4.914292
           3
 STEP:         939
 O      5.277257      5.242833      5.361517
 H      5.935829      5.738919      4.821210
 H      4.445817      5.525513      4.915545
           3
 STEP:         940
 O      5.277400      5.242705      5.361398
 H      5.934056      5.742003      4.821826
 H      4.444335      5.524239      4.916824
           3
 STEP:         941
 O      5.277543      5.242580      5.361276
 H      5.932284      5.745063      4.822469
 H      4.442862      5.522946      4.918130
           3
 STEP:         942
 O      5.277685      5.242458      5.361150
 H      5.930515      5.748101      4.823140
 H      4.441398      5.521632      4.919463
           3
 STEP:         943
 O      5.277827      5.242338      5.361020
 H      5.928748      5.751114      4.823839
 H      4.439946      5.520298      4.920822
           3
 STEP:         944
 O      5.277967      5.242220      5.360887
 H      5.926985      5.754103      4.824565
 H      4.438506      5.518944      4.922208
           3
 STEP:         945
 O      5.278107      5.242105      5.360750
 H      5.925224      5.757069      4.825318
 H      4.437080      5.517569      4.923622
           3
 STEP:         946
 O      5.278246      5.241993      5.360610
 H      5.923467      5.760011      4.826099
 H      4.435668      5.516175      4.925063
           3
 STEP:         947
 O      5.278383      5.241884      5.360466
 H      5.921712      5.762930      4.826906
 H      4.434272      5.514759      4.926533
           3
 STEP:         948
 O      5.278520      5.241777      5.360319
 H      5.919959      5.765826      4.827740
 H      4.432891      5.513324      4.928032
           3
 STEP:         949
 O      5.278656      5.241673      5.360168
 H      5.918209      5.768701      4.828600
 H      4.431528      5.511868      4.929559
           3
 STEP:         950
 O      5.278791      5.241572      5.360015
 H      5.916461      5.771555      4.829486
 H      4.430181      5.510392      4.931117
           3
 STEP:         951
 O      5.278924      5.241474      5.359858
 H      5.914716      5.774388      4.830397
 H      4.428852      5.508893      4.932704
           3
 STEP:         952
 O      5.279056      5.241379      5.359699
 H      5.912973      5.777201      4.831334
 H      4.427542      5.507372      4.934321
           3
 STEP:         953
 O      5.279186      5.241287      5.359536
 H      5.911233      5.779995      4.832295
 H      4.426250      5.505828      4.935968
           3
 STEP:         954
 O      5.279315      5.241197      5.359370
 H      5.909496      5.782770      4.833279
 H      4.424977      5.504260      4.937644
           3
 STEP:         955
 O      5.279442      5.241109      5.359202
 H      5.907763      5.785528      4.834285
 H      4.423725      5.502668      4.939349
           3
 STEP:         956
 O      5.279567      5.241025      5.359030
 H      5.906033      5.788268      4.835312
 H      4.422494      5.501051      4.941083
           3
 STEP:         957
 O      5.279691      5.240942      5.358854
 H      5.904307      5.790992      4.836359
 H      4.421285      5.499410      4.942846
           3
 STEP:         958
 O      5.279813      5.240862      5.358676
 H      5.902586      5.793699      4.837425
 H      4.420098      5.497744      4.944636
           3
 STEP:         959
 O      5.279934      5.240785      5.358494
 H      5.900871      5.796391      4.838509
 H      4.418935      5.496056      4.946452
           3
 STEP:         960
 O      5.280053      5.240710      5.358310
 H      5.899160      5.799067      4.839610
 H      4.417795      5.494344      4.948295
           3
 STEP:         961
 O      5.280171      5.240638      5.358122
 H      5.897456      5.801728      4.840728
 H      4.416677      5.492610      4.950163
           3
 STEP:         962
 O      5.280287      5.240567      5.357932
 H      5.895757      5.804375      4.841862
 H      4.415582      5.490854      4.952057
           3
 STEP:         963
 O      5.280402      5.240500      5.357739
 H      5.894065      5.807007      4.843011
 H      4.414509      5.489077      4.953976
           3
 STEP:         964
 O      5.280515      5.240434      5.357543
 H      5.892379      5.809626      4.844175
 H      4.413457      5.487277      4.955920
           3
 STEP:         965
 O      5.280627      5.240371      5.357345
 H      5.890700      5.812232      4.845353
 H      4.412426      5.485458      4.957888
           3
 STEP:         966
 O      5.280736      5.240309      5.357145
 H      5.889028      5.814825      4.846544
 H      4.411416      5.483618      4.959881
           3
 STEP:         967
 O      5.280843      5.240249      5.356942
 H      5.887364      5.817405      4.847750
 H      4.410425      5.481760      4.961897
           3
 STEP:         968
 O      5.280948      5.240191      5.356737
 H      5.885708      5.819975      4.848968
 H      4.409453      5.479884      4.963936
           3
 STEP:         969
 O      5.281051      5.240135      5.356530
 H      5.884060      5.822533      4.850200
 H      4.408499      5.477991      4.965998
           3
 STEP:         970
 O      5.281153      5.240079      5.356322
 H      5.882419      5.825082      4.851445
 H      4.407563      5.476083      4.968081
           3
 STEP:         971
 O      5.281252      5.240025      5.356111
 H      5.880786      5.827622      4.852701
 H      4.406643      5.474160      4.970184
           3
 STEP:         972
 O      5.281351      5.239973      5.355898
 H      5.879161      5.830153      4.853969
 H      4.405739      5.472223      4.972308
           3
 STEP:         973
 O      5.281448      5.239922      5.355684
 H      5.877542      5.832676      4.855247
 H      4.404851      5.470273      4.974449
           3
 STEP:         974
 O      5.281544      5.239873      5.355468
 H      5.875931      5.835193      4.856534
 H      4.403978      5.468309      4.976609
           3
 STEP:         975
 O      5.281638      5.239825      5.355251
 H      5.874328      5.837702      4.857830
 H      4.403118      5.466333      4.978785
           3
 STEP:         976
 O      5.281732      5.239778      5.355032
 H      5.872733      5.840205      4.859133
 H      4.402271      5.464343      4.980976
           3
 STEP:         977
 O      5.281824      5.239732      5.354812
 H      5.871147      5.842703      4.860442
 H      4.401436      5.462340      4.983182
           3
 STEP:         978
 O      5.281916      5.239688      5.354590
 H      5.869569      5.845196      4.861757
 H      4.400612      5.460325      4.985400
           3
 STEP:         979
 O      5.282007      5.239643      5.354367
 H      5.868000      5.847684      4.863076
 H      4.399797      5.458299      4.987629
           3
 STEP:         980
 O      5.282097      5.239600      5.354142
 H      5.866441      5.850167      4.864400
 H      4.398991      5.456263      4.989868
           3
 STEP:         981
 O      5.282186      5.239558      5.353917
 H      5.864891      5.852647      4.865728
 H      4.398191      5.454217      4.992116
           3
 STEP:         982
 O      5.282275      5.239517      5.353691
 H      5.863350      5.855123      4.867061
 H      4.397396      5.452164      4.994370
           3
 STEP:         983
 O      5.282363      5.239476      5.353463
 H      5.861817      5.857596      4.868398
 H      4.396604      5.450103      4.996629
           3
 STEP:         984
 O      5.282450      5.239437      5.353236
 H      5.860292      5.860065      4.869738
 H      4.395814      5.448037      4.998893
           3
 STEP:         985
 O      5.282537      5.239398      5.353008
 H      5.858773      5.862532      4.871083
 H      4.395023      5.445965      5.001160
           3
 STEP:         986
 O      5.282624      5.239359      5.352779
 H      5.857260      5.864996      4.872431
 H      4.394230      5.443889      5.003429
           3
 STEP:         987
 O      5.282711      5.239320      5.352550
 H      5.855752      5.867459      4.873781
 H      4.393434      5.441809      5.005701
           3
 STEP:         988
 O      5.282797      5.239282      5.352320
 H      5.854247      5.869921      4.875135
 H      4.392632      5.439726      5.007975
           3
 STEP:         989
 O      5.282883      5.239245      5.352091
 H      5.852746      5.872384      4.876490
 H      4.391823      5.437639      5.010251
           3
 STEP:         990
 O      5.282969      5.239208      5.351862
 H      5.851247      5.874847      4.877846
 H      4.391006      5.435549      5.012529
           3
 STEP:         991
 O      5.283054      5.239171      5.351633
 H      5.849750      5.877312      4.879203
 H      4.390180      5.433458      5.014807
           3
 STEP:         992
 O      5.283140      5.239134      5.351404
 H      5.848254      5.879779      4.880561
 H      4.389343      5.431365      5.017086
           3
 STEP:         993
 O      5.283225      5.239097      5.351175
 H      5.846760      5.882248      4.881918
 H      4.388495      5.429271      5.019366
           3
 STEP:         994
 O      5.283312      5.239060      5.350947
 H      5.845267      5.884718      4.883274
 H      4.387636      5.427178      5.021645
           3
 STEP:         995
 O      5.283398      5.239023      5.350718
 H      5.843775      5.887190      4.884630
 H      4.386764      5.425085      5.023922
           3
 STEP:         996
 O      5.283486      5.238986      5.350490
 H      5.842283      5.889663      4.885985
 H      4.385881      5.422995      5.026197
           3
 STEP:         997
 O      5.283574      5.238949      5.350262
 H      5.840792      5.892138      4.887338
 H      4.384986      5.420907      5.028468
           3
 STEP:         998
 O      5.283663      5.238910      5.350034
 H      5.839302      5.894613      4.888690
 H      4.384079      5.418823      5.030733
           3
 STEP:         999
 O      5.283754      5.238872      5.349806
 H      5.837811      5.897089      4.890040
 H      4.383160      5.416744      5.032992
           3
 STEP:        1000
 O      5.283846      5.238833      5.349578
 H      5.836320      5.899565      4.891388
 H      4.382229      5.414671      5.035243
           3
 STEP:        1001
 O      5.283939      5.238794      5.349350
 H      5.834827      5.902041      4.892735
 H      4.381286      5.412605      5.037486
           3
 STEP:        1002
 O      5.284034      5.238754      5.349123
 H      5.833330      5.904516      4.894082
 H      4.380330      5.410546      5.039719
           3
 STEP:        1003
 O      5.284131      5.238714      5.348897
 H      5.831831      5.906990      4.895427
 H      4.379362      5.408496      5.041943
           3
 STEP:        1004
 O      5.284229      5.238674      5.348671
 H      5.830326      5.909464      4.896772
 H      4.378379      5.406453      5.044157
           3
 STEP:        1005
 O      5.284328      5.238633      5.348447
 H      5.828816      5.911936      4.898117
 H      4.377383      5.404419      5.046360
           3
 STEP:        1006
 O      5.284428      5.238592      5.348223
 H      5.827300      5.914407      4.899461
 H      4.376372      5.402392      5.048552
           3
 STEP:        1007
 O      5.284529      5.238550      5.348000
 H      5.825775      5.916876      4.900805
 H      4.375345      5.400375      5.050735
           3
 STEP:        1008
 O      5.284632      5.238508      5.347778
 H      5.824241      5.919343      4.902149
 H      4.374304      5.398365      5.052906
           3
 STEP:        1009
 O      5.284736      5.238465      5.347556
 H      5.822696      5.921809      4.903492
 H      4.373247      5.396365      5.055068
           3
 STEP:        1010
 O      5.284841      5.238421      5.347335
 H      5.821139      5.924273      4.904835
 H      4.372175      5.394373      5.057220
           3
 STEP:        1011
 O      5.284947      5.238377      5.347115
 H      5.819568      5.926735      4.906176
 H      4.371090      5.392390      5.059363
           3
 STEP:        1012
 O      5.285054      5.238333      5.346896
 H      5.817982      5.929197      4.907517
 H      4.369992      5.390416      5.061496
           3
 STEP:        1013
 O      5.285162      5.238288      5.346677
 H      5.816379      5.931657      4.908857
 H      4.368883      5.388453      5.063620
           3
 STEP:        1014
 O      5.285272      5.238242      5.346459
 H      5.814758      5.934115      4.910195
 H      4.367763      5.386501      5.065735
           3
 STEP:        1015
 O      5.285383      5.238196      5.346241
 H      5.813119      5.936572      4.911532
 H      4.366636      5.384560      5.067839
           3
 STEP:        1016
 O      5.285496      5.238149      5.346023
 H      5.811462      5.939028      4.912867
 H      4.365501      5.382632      5.069934
           3
 STEP:        1017
 O      5.285611      5.238102      5.345806
 H      5.809785      5.941481      4.914202
 H      4.364360      5.380717      5.072018
           3
 STEP:        1018
 O      5.285727      5.238055      5.345590
 H      5.808089      5.943931      4.915535
 H      4.363214      5.378816      5.074092
           3
 STEP:        1019
 O      5.285845      5.238007      5.345374
 H      5.806374      5.946378      4.916869
 H      4.362064      5.376928      5.076155
           3
 STEP:        1020
 O      5.285964      5.237959      5.345160
 H      5.804639      5.948821      4.918202
 H      4.360911      5.375055      5.078208
           3
 STEP:        1021
 O      5.286084      5.237911      5.344946
 H      5.802885      5.951259      4.919536
 H      4.359756      5.373195      5.080249
           3
 STEP:        1022
 O      5.286205      5.237862      5.344733
 H      5.801110      5.953693      4.920870
 H      4.358600      5.371350      5.082280
           3
 STEP:        1023
 O      5.286328      5.237812      5.344520
 H      5.799314      5.956121      4.922204
 H      4.357445      5.369519      5.084300
           3
 STEP:        1024
 O      5.286453      5.237761      5.344309
 H      5.797498      5.958543      4.923538
 H      4.356291      5.367703      5.086309
           3
 STEP:        1025
 O      5.286578      5.237710      5.344099
 H      5.795659      5.960958      4.924873
 H      4.355141      5.365901      5.088307
           3
 STEP:        1026
 O      5.286705      5.237657      5.343889
 H      5.793799      5.963364      4.926208
 H      4.353995      5.364115      5.090295
           3
 STEP:        1027
 O      5.286834      5.237604      5.343680
 H      5.791915      5.965762      4.927544
 H      4.352856      5.362343      5.092273
           3
 STEP:        1028
 O      5.286964      5.237550      5.343472
 H      5.790007      5.968150      4.928880
 H      4.351724      5.360586      5.094242
           3
 STEP:        1029
 O      5.287095      5.237495      5.343264
 H      5.788075      5.970529      4.930216
 H      4.350603      5.358842      5.096202
           3
 STEP:        1030
 O      5.287227      5.237440      5.343056
 H      5.786117      5.972899      4.931553
 H      4.349493      5.357112      5.098153
           3
 STEP:        1031
 O      5.287359      5.237385      5.342848
 H      5.784132      5.975259      4.932890
 H      4.348396      5.355395      5.100096
           3
 STEP:        1032
 O      5.287493      5.237329      5.342641
 H      5.782120      5.977611      4.934228
 H      4.347313      5.353691      5.102032
           3
 STEP:        1033
 O      5.287628      5.237273      5.342434
 H      5.780078      5.979955      4.935566
 H      4.346246      5.352001      5.103960
           3
 STEP:        1034
 O      5.287763      5.237216      5.342228
 H      5.778006      5.982292      4.936904
 H      4.345197      5.350326      5.105882
           3
 STEP:        1035
 O      5.287899      5.237160      5.342021
 H      5.775904      5.984623      4.938242
 H      4.344168      5.348666      5.107797
           3
 STEP:        1036
 O      5.288034      5.237103      5.341815
 H      5.773770      5.986949      4.939580
 H      4.343162      5.347021      5.109706
           3
 STEP:        1037
 O      5.288169      5.237046      5.341609
 H      5.771604      5.989268      4.940918
 H      4.342179      5.345394      5.111610
           3
 STEP:        1038
 O      5.288304      5.236989      5.341404
 H      5.769406      5.991580      4.942256
 H      4.341223      5.343783      5.113509
           3
 STEP:        1039
 O      5.288438      5.236932      5.341199
 H      5.767177      5.993884      4.943594
 H      4.340296      5.342189      5.115404
           3
 STEP:        1040
 O      5.288572      5.236874      5.340995
 H      5.764917      5.996178      4.944934
 H      4.339398      5.340614      5.117295
           3
 STEP:        1041
 O      5.288707      5.236816      5.340791
 H      5.762626      5.998463      4.946276
 H      4.338531      5.339056      5.119182
           3
 STEP:        1042
 O      5.288842      5.236757      5.340587
 H      5.760305      6.000735      4.947619
 H      4.337697      5.337515      5.121064
           3
 STEP:        1043
 O      5.288977      5.236697      5.340383
 H      5.757953      6.002996      4.948966
 H      4.336896      5.335992      5.122942
           3
 STEP:        1044
 O      5.289113      5.236637      5.340181
 H      5.755572      6.005244      4.950315
 H      4.336129      5.334487      5.124816
           3
 STEP:        1045
 O      5.289249      5.236576      5.339979
 H      5.753162      6.007479      4.951667
 H      4.335396      5.332998      5.126686
           3
 STEP:        1046
 O      5.289385      5.236515      5.339777
 H      5.750722      6.009702      4.953022
 H      4.334698      5.331526      5.128551
           3
 STEP:        1047
 O      5.289521      5.236453      5.339576
 H      5.748254      6.011914      4.954378
 H      4.334036      5.330070      5.130413
           3
 STEP:        1048
 O      5.289657      5.236391      5.339375
 H      5.745757      6.014115      4.955736
 H      4.333409      5.328629      5.132272
           3
 STEP:        1049
 O      5.289793      5.236327      5.339173
 H      5.743231      6.016306      4.957095
 H      4.332819      5.327204      5.134126
           3
 STEP:        1050
 O      5.289928      5.236262      5.338971
 H      5.740675      6.018489      4.958454
 H      4.332265      5.325792      5.135978
           3
 STEP:        1051
 O      5.290063      5.236197      5.338770
 H      5.738090      6.020663      4.959814
 H      4.331748      5.324396      5.137826
           3
 STEP:        1052
 O      5.290196      5.236132      5.338569
 H      5.735475      6.022830      4.961174
 H      4.331268      5.323014      5.139670
           3
 STEP:        1053
 O      5.290329      5.236067      5.338368
 H      5.732830      6.024989      4.962535
 H      4.330824      5.321647      5.141512
           3
 STEP:        1054
 O      5.290461      5.236001      5.338168
 H      5.730156      6.027140      4.963896
 H      4.330417      5.320295      5.143351
           3
 STEP:        1055
 O      5.290592      5.235936      5.337967
 H      5.727452      6.029283      4.965259
 H      4.330046      5.318958      5.145186
           3
 STEP:        1056
 O      5.290722      5.235871      5.337766
 H      5.724721      6.031417      4.966622
 H      4.329711      5.317636      5.147018
           3
 STEP:        1057
 O      5.290852      5.235805      5.337566
 H      5.721961      6.033542      4.967986
 H      4.329412      5.316329      5.148846
           3
 STEP:        1058
 O      5.290981      5.235739      5.337366
 H      5.719175      6.035658      4.969351
 H      4.329149      5.315037      5.150671
           3
 STEP:        1059
 O      5.291110      5.235673      5.337166
 H      5.716362      6.037765      4.970715
 H      4.328922      5.313761      5.152491
           3
 STEP:        1060
 O      5.291239      5.235606      5.336967
 H      5.713525      6.039864      4.972080
 H      4.328729      5.312501      5.154308
           3
 STEP:        1061
 O      5.291368      5.235539      5.336768
 H      5.710663      6.041953      4.973445
 H      4.328571      5.311256      5.156122
           3
 STEP:        1062
 O      5.291496      5.235472      5.336569
 H      5.707776      6.044034      4.974810
 H      4.328448      5.310026      5.157932
           3
 STEP:        1063
 O      5.291625      5.235403      5.336370
 H      5.704865      6.046106      4.976176
 H      4.328357      5.308810      5.159739
           3
 STEP:        1064
 O      5.291753      5.235334      5.336172
 H      5.701932      6.048169      4.977541
 H      4.328298      5.307610      5.161545
           3
 STEP:        1065
 O      5.291881      5.235265      5.335973
 H      5.698975      6.050225      4.978908
 H      4.328269      5.306424      5.163348
           3
 STEP:        1066
 O      5.292008      5.235195      5.335775
 H      5.695996      6.052272      4.980276
 H      4.328269      5.305252      5.165149
           3
 STEP:        1067
 O      5.292136      5.235124      5.335578
 H      5.692995      6.054312      4.981644
 H      4.328294      5.304094      5.166949
           3
 STEP:        1068
 O      5.292263      5.235053      5.335381
 H      5.689973      6.056344      4.983014
 H      4.328345      5.302948      5.168748
           3
 STEP:        1069
 O      5.292391      5.234982      5.335184
 H      5.686931      6.058369      4.984385
 H      4.328418      5.301814      5.170545
           3
 STEP:        1070
 O      5.292518      5.234910      5.334987
 H      5.683870      6.060387      4.985757
 H      4.328513      5.300691      5.172341
           3
 STEP:        1071
 O      5.292645      5.234837      5.334790
 H      5.680790      6.062398      4.987130
 H      4.328629      5.299580      5.174134
           3
 STEP:        1072
 O      5.292772      5.234764      5.334594
 H      5.677691      6.064403      4.988503
 H      4.328764      5.298479      5.175925
           3
 STEP:        1073
 O      5.292898      5.234691      5.334397
 H      5.674574      6.066402      4.989876
 H      4.328918      5.297388      5.177713
           3
 STEP:        1074
 O      5.293024      5.234618      5.334201
 H      5.671440      6.068395      4.991250
 H      4.329089      5.296308      5.179497
           3
 STEP:        1075
 O      5.293150      5.234545      5.334005
 H      5.668290      6.070382      4.992624
 H      4.329275      5.295238      5.181277
           3
 STEP:        1076
 O      5.293276      5.234471      5.333808
 H      5.665124      6.072363      4.993999
 H      4.329476      5.294178      5.183052
           3
 STEP:        1077
 O      5.293402      5.234398      5.333611
 H      5.661943      6.074339      4.995373
 H      4.329689      5.293128      5.184822
           3
 STEP:        1078
 O      5.293528      5.234324      5.333414
 H      5.658748      6.076309      4.996747
 H      4.329912      5.292089      5.186587
           3
 STEP:        1079
 O      5.293655      5.234250      5.333217
 H      5.655540      6.078273      4.998122
 H      4.330141      5.291059      5.188349
           3
 STEP:        1080
 O      5.293783      5.234176      5.333021
 H      5.652320      6.080232      4.999497
 H      4.330376      5.290039      5.190107
           3
 STEP:        1081
 O      5.293912      5.234102      5.332824
 H      5.649088      6.082185      5.000873
 H      4.330613      5.289028      5.191862
           3
 STEP:        1082
 O      5.294041      5.234027      5.332628
 H      5.645847      6.084133      5.002251
 H      4.330851      5.288024      5.193614
           3
 STEP:        1083
 O      5.294172      5.233953      5.332433
 H      5.642596      6.086075      5.003630
 H      4.331087      5.287029      5.195366
           3
 STEP:        1084
 O      5.294303      5.233879      5.332238
 H      5.639336      6.088012      5.005012
 H      4.331320      5.286039      5.197116
           3
 STEP:        1085
 O      5.294435      5.233805      5.332043
 H      5.636068      6.089944      5.006396
 H      4.331548      5.285056      5.198865
           3
 STEP:        1086
 O      5.294567      5.233731      5.331848
 H      5.632791      6.091870      5.007784
 H      4.331769      5.284077      5.200614
           3
 STEP:        1087
 O      5.294700      5.233657      5.331654
 H      5.629506      6.093789      5.009176
 H      4.331982      5.283102      5.202362
           3
 STEP:        1088
 O      5.294833      5.233583      5.331460
 H      5.626214      6.095701      5.010571
 H      4.332185      5.282130      5.204108
           3
 STEP:        1089
 O      5.294967      5.233510      5.331266
 H      5.622916      6.097607      5.011970
 H      4.332377      5.281161      5.205853
           3
 STEP:        1090
 O      5.295103      5.233437      5.331073
 H      5.619612      6.099504      5.013371
 H      4.332555      5.280194      5.207595
           3
 STEP:        1091
 O      5.295239      5.233364      5.330879
 H      5.616304      6.101393      5.014776
 H      4.332719      5.279228      5.209335
           3
 STEP:        1092
 O      5.295377      5.233292      5.330685
 H      5.612993      6.103272      5.016184
 H      4.332866      5.278263      5.211072
           3
 STEP:        1093
 O      5.295517      5.233220      5.330491
 H      5.609679      6.105143      5.017595
 H      4.332995      5.277297      5.212805
           3
 STEP:        1094
 O      5.295658      5.233149      5.330297
 H      5.606364      6.107003      5.019008
 H      4.333104      5.276329      5.214535
           3
 STEP:        1095
 O      5.295801      5.233078      5.330103
 H      5.603048      6.108852      5.020424
 H      4.333193      5.275360      5.216262
           3
 STEP:        1096
 O      5.295946      5.233008      5.329909
 H      5.599732      6.110692      5.021843
 H      4.333261      5.274389      5.217987
           3
 STEP:        1097
 O      5.296092      5.232939      5.329715
 H      5.596418      6.112520      5.023265
 H      4.333305      5.273415      5.219708
           3
 STEP:        1098
 O      5.296240      5.232871      5.329521
 H      5.593104      6.114338      5.024689
 H      4.333324      5.272439      5.221428
           3
 STEP:        1099
 O      5.296389      5.232803      5.329326
 H      5.589792      6.116145      5.026116
 H      4.333318      5.271459      5.223146
           3
 STEP:        1100
 O      5.296540      5.232737      5.329132
 H      5.586482      6.117942      5.027547
 H      4.333286      5.270477      5.224865
           3
 STEP:        1101
 O      5.296692      5.232671      5.328937
 H      5.583174      6.119728      5.028982
 H      4.333226      5.269491      5.226584
           3
 STEP:        1102
 O      5.296845      5.232607      5.328742
 H      5.579869      6.121502      5.030421
 H      4.333139      5.268500      5.228305
           3
 STEP:        1103
 O      5.296999      5.232544      5.328547
 H      5.576567      6.123264      5.031864
 H      4.333023      5.267504      5.230027
           3
 STEP:        1104
 O      5.297155      5.232483      5.328352
 H      5.573269      6.125014      5.033313
 H      4.332879      5.266502      5.231751
           3
 STEP:        1105
 O      5.297312      5.232423      5.328156
 H      5.569976      6.126752      5.034767
 H      4.332707      5.265491      5.233477
           3
 STEP:        1106
 O      5.297470      5.232365      5.327961
 H      5.566688      6.128475      5.036227
 H      4.332507      5.264472      5.235204
           3
 STEP:        1107
 O      5.297630      5.232308      5.327765
 H      5.563406      6.130185      5.037694
 H      4.332280      5.263443      5.236932
           3
 STEP:        1108
 O      5.297790      5.232252      5.327569
 H      5.560131      6.131879      5.039167
 H      4.332027      5.262403      5.238661
           3
 STEP:        1109
 O      5.297951      5.232197      5.327372
 H      5.556863      6.133558      5.040646
 H      4.331748      5.261352      5.240391
           3
 STEP:        1110
 O      5.298113      5.232145      5.327174
 H      5.553604      6.135222      5.042133
 H      4.331444      5.260288      5.242121
           3
 STEP:        1111
 O      5.298276      5.232094      5.326976
 H      5.550355      6.136869      5.043627
 H      4.331115      5.259212      5.243852
           3
 STEP:        1112
 O      5.298440      5.232045      5.326777
 H      5.547116      6.138500      5.045127
 H      4.330762      5.258123      5.245583
           3
 STEP:        1113
 O      5.298604      5.231998      5.326577
 H      5.543887      6.140114      5.046634
 H      4.330387      5.257019      5.247315
           3
 STEP:        1114
 O      5.298769      5.231952      5.326377
 H      5.540671      6.141711      5.048148
 H      4.329990      5.255901      5.249049
           3
 STEP:        1115
 O      5.298935      5.231909      5.326176
 H      5.537465      6.143290      5.049668
 H      4.329572      5.254768      5.250785
           3
 STEP:        1116
 O      5.299101      5.231868      5.325975
 H      5.534272      6.144851      5.051195
 H      4.329136      5.253620      5.252525
           3
 STEP:        1117
 O      5.299268      5.231830      5.325773
 H      5.531091      6.146393      5.052728
 H      4.328683      5.252456      5.254269
           3
 STEP:        1118
 O      5.299434      5.231794      5.325570
 H      5.527923      6.147915      5.054268
 H      4.328213      5.251276      5.256019
           3
 STEP:        1119
 O      5.299600      5.231760      5.325367
 H      5.524768      6.149417      5.055814
 H      4.327730      5.250081      5.257774
           3
 STEP:        1120
 O      5.299766      5.231729      5.325164
 H      5.521625      6.150898      5.057368
 H      4.327234      5.248869      5.259537
           3
 STEP:        1121
 O      5.299932      5.231701      5.324960
 H      5.518497      6.152357      5.058927
 H      4.326728      5.247640      5.261306
           3
 STEP:        1122
 O      5.300098      5.231675      5.324757
 H      5.515384      6.153793      5.060494
 H      4.326213      5.246395      5.263083
           3
 STEP:        1123
 O      5.300263      5.231652      5.324553
 H      5.512285      6.155205      5.062067
 H      4.325692      5.245130      5.264867
           3
 STEP:        1124
 O      5.300427      5.231631      5.324349
 H      5.509203      6.156594      5.063647
 H      4.325165      5.243846      5.266659
           3
 STEP:        1125
 O      5.300592      5.231614      5.324143
 H      5.506136      6.157958      5.065234
 H      4.324634      5.242542      5.268457
           3
 STEP:        1126
 O      5.300755      5.231599      5.323937
 H      5.503087      6.159297      5.066828
 H      4.324102      5.241216      5.270262
           3
 STEP:        1127
 O      5.300918      5.231586      5.323730
 H      5.500053      6.160612      5.068430
 H      4.323570      5.239868      5.272073
           3
 STEP:        1128
 O      5.301080      5.231576      5.323522
 H      5.497038      6.161902      5.070040
 H      4.323040      5.238497      5.273890
           3
 STEP:        1129
 O      5.301240      5.231568      5.323313
 H      5.494039      6.163167      5.071658
 H      4.322513      5.237102      5.275712
           3
 STEP:        1130
 O      5.301399      5.231564      5.323103
 H      5.491058      6.164407      5.073285
 H      4.321991      5.235684      5.277539
           3
 STEP:        1131
 O      5.301556      5.231563      5.322892
 H      5.488095      6.165622      5.074920
 H      4.321476      5.234242      5.279370
           3
 STEP:        1132
 O      5.301711      5.231565      5.322680
 H      5.485151      6.166813      5.076564
 H      4.320969      5.232776      5.281207
           3
 STEP:        1133
 O      5.301864      5.231570      5.322468
 H      5.482227      6.167979      5.078216
 H      4.320472      5.231285      5.283048
           3
 STEP:        1134
 O      5.302014      5.231579      5.322254
 H      5.479323      6.169120      5.079877
 H      4.319987      5.229770      5.284894
           3
 STEP:        1135
 O      5.302162      5.231590      5.322040
 H      5.476439      6.170236      5.081545
 H      4.319516      5.228230      5.286746
           3
 STEP:        1136
 O      5.302308      5.231605      5.321825
 H      5.473577      6.171328      5.083222
 H      4.319061      5.226667      5.288605
           3
 STEP:        1137
 O      5.302451      5.231623      5.321610
 H      5.470738      6.172395      5.084906
 H      4.318624      5.225079      5.290470
           3
 STEP:        1138
 O      5.302591      5.231644      5.321394
 H      5.467921      6.173437      5.086598
 H      4.318207      5.223467      5.292343
           3
 STEP:        1139
 O      5.302729      5.231667      5.321177
 H      5.465126      6.174455      5.088298
 H      4.317812      5.221831      5.294224
           3
 STEP:        1140
 O      5.302864      5.231694      5.320959
 H      5.462355      6.175448      5.090004
 H      4.317440      5.220170      5.296113
           3
 STEP:        1141
 O      5.302996      5.231724      5.320741
 H      5.459607      6.176416      5.091718
 H      4.317095      5.218485      5.298011
           3
 STEP:        1142
 O      5.303125      5.231757      5.320522
 H      5.456881      6.177360      5.093439
 H      4.316777      5.216775      5.299917
           3
 STEP:        1143
 O      5.303251      5.231793      5.320303
 H      5.454179      6.178278      5.095166
 H      4.316489      5.215040      5.301832
           3
 STEP:        1144
 O      5.303374      5.231832      5.320083
 H      5.451499      6.179173      5.096900
 H      4.316231      5.213279      5.303755
           3
 STEP:        1145
 O      5.303494      5.231875      5.319862
 H      5.448844      6.180043      5.098640
 H      4.316006      5.211493      5.305687
           3
 STEP:        1146
 O      5.303610      5.231921      5.319641
 H      5.446211      6.180889      5.100386
 H      4.315815      5.209680      5.307626
           3
 STEP:        1147
 O      5.303722      5.231970      5.319419
 H      5.443603      6.181712      5.102137
 H      4.315660      5.207840      5.309574
           3
 STEP:        1148
 O      5.303831      5.232022      5.319196
 H      5.441020      6.182511      5.103894
 H      4.315541      5.205974      5.311529
           3
 STEP:        1149
 O      5.303937      5.232077      5.318973
 H      5.438461      6.183287      5.105656
 H      4.315459      5.204082      5.313490
           3
 STEP:        1150
 O      5.304038      5.232135      5.318749
 H      5.435927      6.184042      5.107423
 H      4.315414      5.202163      5.315458
           3
 STEP:        1151
 O      5.304135      5.232196      5.318525
 H      5.433418      6.184774      5.109195
 H      4.315408      5.200218      5.317432
           3
 STEP:        1152
 O      5.304228      5.232260      5.318300
 H      5.430933      6.185486      5.110971
 H      4.315439      5.198246      5.319411
           3
 STEP:        1153
 O      5.304317      5.232327      5.318075
 H      5.428474      6.186178      5.112753
 H      4.315509      5.196249      5.321395
           3
 STEP:        1154
 O      5.304402      5.232398      5.317850
 H      5.426039      6.186849      5.114538
 H      4.315617      5.194225      5.323384
           3
 STEP:        1155
 O      5.304483      5.232471      5.317624
 H      5.423630      6.187501      5.116327
 H      4.315764      5.192176      5.325376
           3
 STEP:        1156
 O      5.304559      5.232547      5.317398
 H      5.421246      6.188135      5.118119
 H      4.315948      5.190102      5.327374
           3
 STEP:        1157
 O      5.304632      5.232626      5.317171
 H      5.418887      6.188750      5.119915
 H      4.316171      5.188004      5.329376
           3
 STEP:        1158
 O      5.304700      5.232707      5.316944
 H      5.416554      6.189347      5.121712
 H      4.316432      5.185881      5.331382
           3
 STEP:        1159
 O      5.304765      5.232791      5.316716
 H      5.414247      6.189926      5.123512
 H      4.316732      5.183733      5.333394
           3
 STEP:        1160
 O      5.304825      5.232878      5.316487
 H      5.411966      6.190488      5.125315
 H      4.317070      5.181560      5.335410
           3
 STEP:        1161
 O      5.304882      5.232967      5.316258
 H      5.409712      6.191033      5.127120
 H      4.317447      5.179362      5.337432
           3
 STEP:        1162
 O      5.304935      5.233058      5.316028
 H      5.407486      6.191562      5.128928
 H      4.317863      5.177139      5.339458
           3
 STEP:        1163
 O      5.304984      5.233152      5.315799
 H      5.405288      6.192075      5.130738
 H      4.318318      5.174889      5.341489
           3
 STEP:        1164
 O      5.305029      5.233249      5.315569
 H      5.403118      6.192574      5.132552
 H      4.318811      5.172614      5.343524
           3
 STEP:        1165
 O      5.305071      5.233348      5.315339
 H      5.400976      6.193058      5.134369
 H      4.319341      5.170313      5.345564
           3
 STEP:        1166
 O      5.305108      5.233449      5.315108
 H      5.398861      6.193530      5.136188
 H      4.319908      5.167986      5.347609
           3
 STEP:        1167
 O      5.305143      5.233553      5.314878
 H      5.396775      6.193991      5.138010
 H      4.320510      5.165634      5.349657
           3
 STEP:        1168
 O      5.305173      5.233658      5.314647
 H      5.394717      6.194441      5.139835
 H      4.321146      5.163257      5.351708
           3
 STEP:        1169
 O      5.305200      5.233766      5.314417
 H      5.392685      6.194882      5.141661
 H      4.321814      5.160856      5.353763
           3
 STEP:        1170
 O      5.305223      5.233875      5.314187
 H      5.390680      6.195316      5.143490
 H      4.322514      5.158431      5.355821
           3
 STEP:        1171
 O      5.305243      5.233986      5.313956
 H      5.388699      6.195743      5.145320
 H      4.323244      5.155981      5.357881
           3
 STEP:        1172
 O      5.305260      5.234099      5.313726
 H      5.386744      6.196164      5.147151
 H      4.324002      5.153508      5.359945
           3
 STEP:        1173
 O      5.305273      5.234214      5.313496
 H      5.384812      6.196579      5.148983
 H      4.324789      5.151012      5.362011
           3
 STEP:        1174
 O      5.305282      5.234331      5.313265
 H      5.382903      6.196988      5.150814
 H      4.325602      5.148492      5.364080
           3
 STEP:        1175
 O      5.305288      5.234449      5.313034
 H      5.381017      6.197392      5.152645
 H      4.326441      5.145951      5.366152
           3
 STEP:        1176
 O      5.305291      5.234570      5.312804
 H      5.379153      6.197790      5.154476
 H      4.327304      5.143387      5.368227
           3
 STEP:        1177
 O      5.305291      5.234692      5.312574
 H      5.377311      6.198183      5.156306
 H      4.328190      5.140801      5.370306
           3
 STEP:        1178
 O      5.305288      5.234817      5.312344
 H      5.375492      6.198573      5.158135
 H      4.329098      5.138195      5.372388
           3
 STEP:        1179
 O      5.305283      5.234944      5.312114
 H      5.373696      6.198959      5.159963
 H      4.330025      5.135567      5.374474
           3
 STEP:        1180
 O      5.305274      5.235072      5.311885
 H      5.371924      6.199342      5.161790
 H      4.330971      5.132919      5.376562
           3
 STEP:        1181
 O      5.305263      5.235203      5.311655
 H      5.370175      6.199723      5.163616
 H      4.331932      5.130252      5.378654
           3
 STEP:        1182
 O      5.305249      5.235334      5.311425
 H      5.368449      6.200102      5.165440
 H      4.332908      5.127565      5.380747
           3
 STEP:        1183
 O      5.305234      5.235467      5.311195
 H      5.366746      6.200479      5.167263
 H      4.333897      5.124859      5.382843
           3
 STEP:        1184
 O      5.305217      5.235601      5.310965
 H      5.365066      6.200856      5.169084
 H      4.334897      5.122134      5.384940
           3
 STEP:        1185
 O      5.305197      5.235736      5.310735
 H      5.363408      6.201232      5.170905
 H      4.335907      5.119391      5.387038
           3
 STEP:        1186
 O      5.305177      5.235872      5.310505
 H      5.361771      6.201608      5.172724
 H      4.336925      5.116628      5.389138
           3
 STEP:        1187
 O      5.305155      5.236009      5.310275
 H      5.360154      6.201985      5.174543
 H      4.337949      5.113847      5.391241
           3
 STEP:        1188
 O      5.305131      5.236147      5.310045
 H      5.358558      6.202362      5.176362
 H      4.338979      5.111047      5.393346
           3
 STEP:        1189
 O      5.305107      5.236286      5.309815
 H      5.356981      6.202741      5.178179
 H      4.340011      5.108229      5.395454
           3
 STEP:        1190
 O      5.305081      5.236426      5.309586
 H      5.355422      6.203122      5.179995
 H      4.341044      5.105392      5.397565
           3
 STEP:        1191
 O      5.305054      5.236567      5.309356
 H      5.353882      6.203504      5.181810
 H      4.342077      5.102536      5.399679
           3
 STEP:        1192
 O      5.305026      5.236709      5.309127
 H      5.352358      6.203888      5.183623
 H      4.343109      5.099662      5.401795
           3
 STEP:        1193
 O      5.304996      5.236852      5.308898
 H      5.350850      6.204275      5.185433
 H      4.344138      5.096770      5.403914
           3
 STEP:        1194
 O      5.304966      5.236995      5.308669
 H      5.349358      6.204664      5.187241
 H      4.345163      5.093861      5.406035
           3
 STEP:        1195
 O      5.304934      5.237140      5.308440
 H      5.347882      6.205055      5.189047
 H      4.346183      5.090936      5.408158
           3
 STEP:        1196
 O      5.304901      5.237285      5.308212
 H      5.346419      6.205451      5.190850
 H      4.347199      5.087995      5.410282
           3
 STEP:        1197
 O      5.304868      5.237431      5.307983
 H      5.344971      6.205849      5.192651
 H      4.348209      5.085039      5.412407
           3
 STEP:        1198
 O      5.304834      5.237578      5.307755
 H      5.343536      6.206251      5.194450
 H      4.349212      5.082069      5.414535
           3
 STEP:        1199
 O      5.304800      5.237725      5.307526
 H      5.342115      6.206657      5.196248
 H      4.350208      5.079084      5.416664
           3
 STEP:        1200
 O      5.304766      5.237873      5.307298
 H      5.340706      6.207066      5.198045
 H      4.351195      5.076086      5.418795
           3
 STEP:        1201
 O      5.304733      5.238022      5.307071
 H      5.339310      6.207479      5.199842
 H      4.352174      5.073074      5.420930
           3
 STEP:        1202
 O      5.304699      5.238172      5.306843
 H      5.337925      6.207894      5.201638
 H      4.353142      5.070050      5.423068
           3
 STEP:        1203
 O      5.304667      5.238322      5.306616
 H      5.336549      6.208312      5.203435
 H      4.354101      5.067015      5.425209
           3
 STEP:        1204
 O      5.304634      5.238473      5.306390
 H      5.335183      6.208731      5.205232
 H      4.355050      5.063969      5.427353
           3
 STEP:        1205
 O      5.304601      5.238624      5.306163
 H      5.333823      6.209152      5.207028
 H      4.355987      5.060914      5.429499
           3
 STEP:        1206
 O      5.304569      5.238777      5.305936
 H      5.332469      6.209574      5.208824
 H      4.356915      5.057850      5.431648
           3
 STEP:        1207
 O      5.304536      5.238929      5.305710
 H      5.331119      6.209996      5.210619
 H      4.357831      5.054780      5.433798
           3
 STEP:        1208
 O      5.304503      5.239083      5.305484
 H      5.329773      6.210416      5.212413
 H      4.358737      5.051702      5.435950
           3
 STEP:        1209
 O      5.304470      5.239237      5.305257
 H      5.328430      6.210836      5.214206
 H      4.359631      5.048618      5.438104
           3
 STEP:        1210
 O      5.304437      5.239391      5.305030
 H      5.327090      6.211253      5.215997
 H      4.360515      5.045527      5.440258
           3
 STEP:        1211
 O      5.304405      5.239545      5.304803
 H      5.325753      6.211668      5.217788
 H      4.361388      5.042431      5.442414
           3
 STEP:        1212
 O      5.304373      5.239698      5.304575
 H      5.324418      6.212081      5.219577
 H      4.362251      5.039330      5.444570
           3
 STEP:        1213
 O      5.304341      5.239853      5.304348
 H      5.323085      6.212490      5.221365
 H      4.363105      5.036224      5.446726
           3
 STEP:        1214
 O      5.304310      5.240007      5.304120
 H      5.321754      6.212897      5.223154
 H      4.363950      5.033116      5.448884
           3
 STEP:        1215
 O      5.304279      5.240162      5.303893
 H      5.320424      6.213300      5.224942
 H      4.364787      5.030006      5.451041
           3
 STEP:        1216
 O      5.304250      5.240317      5.303666
 H      5.319095      6.213701      5.226731
 H      4.365618      5.026895      5.453199
           3
 STEP:        1217
 O      5.304220      5.240472      5.303439
 H      5.317765      6.214098      5.228521
 H      4.366444      5.023787      5.455358
           3
 STEP:        1218
 O      5.304192      5.240627      5.303213
 H      5.316433      6.214492      5.230312
 H      4.367266      5.020681      5.457518
           3
 STEP:        1219
 O      5.304163      5.240783      5.302986
 H      5.315099      6.214882      5.232103
 H      4.368085      5.017578      5.459680
           3
 STEP:        1220
 O      5.304135      5.240939      5.302760
 H      5.313761      6.215269      5.233896
 H      4.368902      5.014480      5.461842
           3
 STEP:        1221
 O      5.304107      5.241094      5.302534
 H      5.312418      6.215651      5.235689
 H      4.369719      5.011388      5.464005
           3
 STEP:        1222
 O      5.304079      5.241250      5.302308
 H      5.311070      6.216029      5.237483
 H      4.370536      5.008302      5.466169
           3
 STEP:        1223
 O      5.304051      5.241405      5.302082
 H      5.309715      6.216401      5.239279
 H      4.371356      5.005224      5.468333
           3
 STEP:        1224
 O      5.304024      5.241561      5.301856
 H      5.308354      6.216767      5.241076
 H      4.372180      5.002153      5.470496
           3
 STEP:        1225
 O      5.303997      5.241716      5.301630
 H      5.306985      6.217126      5.242874
 H      4.373009      4.999091      5.472657
           3
 STEP:        1226
 O      5.303970      5.241870      5.301405
 H      5.305609      6.217477      5.244675
 H      4.373844      4.996039      5.474817
           3
 STEP:        1227
 O      5.303943      5.242025      5.301179
 H      5.304224      6.217820      5.246477
 H      4.374686      4.992997      5.476975
           3
 STEP:        1228
 O      5.303916      5.242179      5.300955
 H      5.302831      6.218155      5.248281
 H      4.375538      4.989966      5.479131
           3
 STEP:        1229
 O      5.303889      5.242333      5.300730
 H      5.301429      6.218481      5.250087
 H      4.376399      4.986947      5.481285
           3
 STEP:        1230
 O      5.303862      5.242487      5.300506
 H      5.300017      6.218798      5.251896
 H      4.377270      4.983941      5.483436
           3
 STEP:        1231
 O      5.303835      5.242640      5.300282
 H      5.298594      6.219106      5.253707
 H      4.378154      4.980949      5.485585
           3
 STEP:        1232
 O      5.303809      5.242793      5.300058
 H      5.297159      6.219404      5.255522
 H      4.379051      4.977971      5.487730
           3
 STEP:        1233
 O      5.303782      5.242944      5.299834
 H      5.295712      6.219691      5.257341
 H      4.379963      4.975009      5.489873
           3
 STEP:        1234
 O      5.303756      5.243095      5.299611
 H      5.294251      6.219968      5.259163
 H      4.380891      4.972065      5.492011
           3
 STEP:        1235
 O      5.303730      5.243246      5.299387
 H      5.292775      6.220232      5.260990
 H      4.381837      4.969140      5.494145
           3
 STEP:        1236
 O      5.303703      5.243395      5.299164
 H      5.291284      6.220484      5.262820
 H      4.382803      4.966237      5.496273
           3
 STEP:        1237
 O      5.303676      5.243545      5.298941
 H      5.289777      6.220723      5.264654
 H      4.383789      4.963357      5.498395
           3
 STEP:        1238
 O      5.303647      5.243694      5.298719
 H      5.288253      6.220948      5.266493
 H      4.384797      4.960502      5.500510
           3
 STEP:        1239
 O      5.303619      5.243842      5.298497
 H      5.286712      6.221159      5.268335
 H      4.385829      4.957673      5.502619
           3
 STEP:        1240
 O      5.303589      5.243990      5.298275
 H      5.285154      6.221355      5.270180
 H      4.386885      4.954872      5.504720
           3
 STEP:        1241
 O      5.303559      5.244137      5.298052
 H      5.283579      6.221536      5.272028
 H      4.387967      4.952099      5.506815
           3
 STEP:        1242
 O      5.303529      5.244282      5.297830
 H      5.281987      6.221702      5.273881
 H      4.389076      4.949355      5.508902
           3
 STEP:        1243
 O      5.303498      5.244427      5.297608
 H      5.280378      6.221852      5.275736
 H      4.390213      4.946638      5.510982
           3
 STEP:        1244
 O      5.303466      5.244570      5.297386
 H      5.278753      6.221988      5.277596
 H      4.391380      4.943950      5.513056
           3
 STEP:        1245
 O      5.303434      5.244712      5.297164
 H      5.277111      6.222109      5.279460
 H      4.392576      4.941290      5.515123
           3
 STEP:        1246
 O      5.303402      5.244853      5.296943
 H      5.275452      6.222216      5.281329
 H      4.393804      4.938659      5.517183
           3
 STEP:        1247
 O      5.303368      5.244993      5.296722
 H      5.273776      6.222309      5.283202
 H      4.395062      4.936057      5.519236
           3
 STEP:        1248
 O      5.303334      5.245132      5.296501
 H      5.272082      6.222389      5.285079
 H      4.396352      4.933486      5.521282
           3
 STEP:        1249
 O      5.303300      5.245270      5.296281
 H      5.270371      6.222456      5.286961
 H      4.397673      4.930947      5.523319
           3
 STEP:        1250
 O      5.303264      5.245408      5.296061
 H      5.268641      6.222510      5.288846
 H      4.399026      4.928441      5.525348
           3
 STEP:        1251
 O      5.303228      5.245544      5.295841
 H      5.266892      6.222550      5.290735
 H      4.400409      4.925969      5.527369
           3
 STEP:        1252
 O      5.303191      5.245679      5.295621
 H      5.265123      6.222578      5.292628
 H      4.401824      4.923530      5.529382
           3
 STEP:        1253
 O      5.303154      5.245813      5.295402
 H      5.263335      6.222591      5.294526
 H      4.403270      4.921125      5.531387
           3
 STEP:        1254
 O      5.303116      5.245945      5.295183
 H      5.261526      6.222592      5.296428
 H      4.404746      4.918754      5.533385
           3
 STEP:        1255
 O      5.303078      5.246075      5.294965
 H      5.259696      6.222579      5.298337
 H      4.406255      4.916416      5.535374
           3
 STEP:        1256
 O      5.303039      5.246204      5.294748
 H      5.257846      6.222552      5.300252
 H      4.407794      4.914112      5.537355
           3
 STEP:        1257
 O      5.303000      5.246332      5.294531
 H      5.255975      6.222511      5.302173
 H      4.409365      4.911840      5.539328
           3
 STEP:        1258
 O      5.302960      5.246457      5.294314
 H      5.254084      6.222457      5.304102
 H      4.410966      4.909601      5.541293
           3
 STEP:        1259
 O      5.302921      5.246581      5.294098
 H      5.252172      6.222390      5.306037
 H      4.412597      4.907395      5.543249
           3
 STEP:        1260
 O      5.302881      5.246704      5.293881
 H      5.250241      6.222310      5.307979
 H      4.414257      4.905223      5.545196
           3
 STEP:        1261
 O      5.302841      5.246825      5.293664
 H      5.248290      6.222217      5.309926
 H      4.415946      4.903083      5.547136
           3
 STEP:        1262
 O      5.302800      5.246945      5.293447
 H      5.246320      6.222112      5.311878
 H      4.417661      4.900977      5.549066
           3
 STEP:        1263
 O      5.302759      5.247064      5.293229
 H      5.244331      6.221994      5.313836
 H      4.419403      4.898904      5.550989
           3
 STEP:        1264
 O      5.302717      5.247181      5.293011
 H      5.242323      6.221864      5.315798
 H      4.421171      4.896863      5.552904
           3
 STEP:        1265
 O      5.302675      5.247298      5.292793
 H      5.240296      6.221720      5.317766
 H      4.422963      4.894855      5.554811
           3
 STEP:        1266
 O      5.302632      5.247413      5.292576
 H      5.238248      6.221564      5.319739
 H      4.424779      4.892877      5.556712
           3
 STEP:        1267
 O      5.302589      5.247526      5.292359
 H      5.236181      6.221396      5.321717
 H      4.426618      4.890931      5.558605
           3
 STEP:        1268
 O      5.302546      5.247639      5.292143
 H      5.234094      6.221215      5.323702
 H      4.428477      4.889016      5.560491
           3
 STEP:        1269
 O      5.302504      5.247751      5.291927
 H      5.231986      6.221022      5.325693
 H      4.430357      4.887131      5.562372
           3
 STEP:        1270
 O      5.302461      5.247861      5.291711
 H      5.229858      6.220817      5.327690
 H      4.432254      4.885277      5.564246
           3
 STEP:        1271
 O      5.302419      5.247971      5.291494
 H      5.227711      6.220601      5.329694
 H      4.434168      4.883453      5.566116
           3
 STEP:        1272
 O      5.302377      5.248079      5.291278
 H      5.225545      6.220375      5.331704
 H      4.436098      4.881658      5.567981
           3
 STEP:        1273
 O      5.302335      5.248186      5.291062
 H      5.223361      6.220140      5.333719
 H      4.438041      4.879892      5.569842
           3
 STEP:        1274
 O      5.302293      5.248292      5.290845
 H      5.221159      6.219895      5.335740
 H      4.439998      4.878153      5.571700
           3
 STEP:        1275
 O      5.302252      5.248396      5.290628
 H      5.218939      6.219641      5.337765
 H      4.441965      4.876441      5.573554
           3
 STEP:        1276
 O      5.302211      5.248499      5.290411
 H      5.216702      6.219380      5.339796
 H      4.443943      4.874754      5.575407
           3
 STEP:        1277
 O      5.302170      5.248601      5.290194
 H      5.214448      6.219111      5.341831
 H      4.445929      4.873091      5.577257
           3
 STEP:        1278
 O      5.302131      5.248701      5.289977
 H      5.212179      6.218835      5.343872
 H      4.447922      4.871450      5.579106
           3
 STEP:        1279
 O      5.302092      5.248801      5.289759
 H      5.209894      6.218553      5.345917
 H      4.449921      4.869831      5.580955
           3
 STEP:        1280
 O      5.302054      5.248900      5.289541
 H      5.207596      6.218264      5.347969
 H      4.451923      4.868233      5.582803
           3
 STEP:        1281
 O      5.302017      5.248998      5.289324
 H      5.205283      6.217969      5.350025
 H      4.453927      4.866653      5.584652
           3
 STEP:        1282
 O      5.301982      5.249095      5.289106
 H      5.202957      6.217668      5.352087
 H      4.455932      4.865092      5.586503
           3
 STEP:        1283
 O      5.301947      5.249192      5.288888
 H      5.200618      6.217360      5.354155
 H      4.457936      4.863546      5.588355
           3
 STEP:        1284
 O      5.301915      5.249288      5.288670
 H      5.198267      6.217044      5.356227
 H      4.459938      4.862016      5.590209
           3
 STEP:        1285
 O      5.301883      5.249383      5.288451
 H      5.195903      6.216721      5.358304
 H      4.461935      4.860499      5.592066
           3
 STEP:        1286
 O      5.301853      5.249478      5.288232
 H      5.193527      6.216389      5.360386
 H      4.463928      4.858995      5.593926
           3
 STEP:        1287
 O      5.301824      5.249573      5.288011
 H      5.191138      6.216048      5.362472
 H      4.465913      4.857501      5.595789
           3
 STEP:        1288
 O      5.301796      5.249667      5.287790
 H      5.188737      6.215699      5.364561
 H      4.467890      4.856018      5.597656
           3
 STEP:        1289
 O      5.301770      5.249761      5.287568
 H      5.186324      6.215341      5.366655
 H      4.469856      4.854543      5.599526
           3
 STEP:        1290
 O      5.301744      5.249855      5.287345
 H      5.183899      6.214974      5.368752
 H      4.471811      4.853076      5.601400
           3
 STEP:        1291
 O      5.301720      5.249948      5.287121
 H      5.181461      6.214599      5.370853
 H      4.473752      4.851615      5.603279
           3
 STEP:        1292
 O      5.301697      5.250041      5.286896
 H      5.179012      6.214217      5.372957
 H      4.475679      4.850160      5.605164
           3
 STEP:        1293
 O      5.301675      5.250134      5.286670
 H      5.176551      6.213828      5.375065
 H      4.477589      4.848709      5.607055
           3
 STEP:        1294
 O      5.301655      5.250226      5.286444
 H      5.174079      6.213433      5.377177
 H      4.479484      4.847261      5.608952
           3
 STEP:        1295
 O      5.301636      5.250319      5.286217
 H      5.171597      6.213033      5.379294
 H      4.481361      4.845815      5.610857
           3
 STEP:        1296
 O      5.301619      5.250412      5.285990
 H      5.169105      6.212628      5.381415
 H      4.483220      4.844371      5.612769
           3
 STEP:        1297
 O      5.301603      5.250505      5.285763
 H      5.166605      6.212218      5.383540
 H      4.485060      4.842927      5.614689
           3
 STEP:        1298
 O      5.301589      5.250599      5.285535
 H      5.164098      6.211803      5.385668
 H      4.486882      4.841483      5.616617
           3
 STEP:        1299
 O      5.301576      5.250693      5.285308
 H      5.161585      6.211382      5.387800
 H      4.488684      4.840040      5.618553
           3
 STEP:        1300
 O      5.301565      5.250788      5.285080
 H      5.159068      6.210956      5.389934
 H      4.490467      4.838596      5.620497
           3
 STEP:        1301
 O      5.301556      5.250884      5.284851
 H      5.156548      6.210524      5.392068
 H      4.492229      4.837150      5.622449
           3
 STEP:        1302
 O      5.301548      5.250980      5.284622
 H      5.154027      6.210087      5.394203
 H      4.493970      4.835703      5.624408
           3
 STEP:        1303
 O      5.301541      5.251078      5.284392
 H      5.151504      6.209643      5.396336
 H      4.495692      4.834254      5.626376
           3
 STEP:        1304
 O      5.301536      5.251176      5.284161
 H      5.148982      6.209193      5.398468
 H      4.497393      4.832801      5.628352
           3
 STEP:        1305
 O      5.301533      5.251275      5.283929
 H      5.146459      6.208738      5.400598
 H      4.499074      4.831344      5.630335
           3
 STEP:        1306
 O      5.301531      5.251374      5.283697
 H      5.143937      6.208276      5.402726
 H      4.500736      4.829880      5.632327
           3
 STEP:        1307
 O      5.301530      5.251473      5.283464
 H      5.141415      6.207808      5.404854
 H      4.502379      4.828408      5.634328
           3
 STEP:        1308
 O      5.301531      5.251573      5.283230
 H      5.138893      6.207332      5.406981
 H      4.504005      4.826927      5.636337
           3
 STEP:        1309
 O      5.301533      5.251673      5.282996
 H      5.136371      6.206849      5.409108
 H      4.505615      4.825434      5.638355
           3
 STEP:        1310
 O      5.301536      5.251773      5.282761
 H      5.133849      6.206358      5.411235
 H      4.507208      4.823930      5.640382
           3
 STEP:        1311
 O      5.301539      5.251874      5.282525
 H      5.131328      6.205857      5.413363
 H      4.508786      4.822414      5.642417
           3
 STEP:        1312
 O      5.301544      5.251976      5.282289
 H      5.128806      6.205347      5.415492
 H      4.510350      4.820887      5.644460
           3
 STEP:        1313
 O      5.301549      5.252078      5.282053
 H      5.126285      6.204828      5.417620
 H      4.511900      4.819349      5.646511
           3
 STEP:        1314
 O      5.301554      5.252182      5.281816
 H      5.123765      6.204299      5.419747
 H      4.513438      4.817801      5.648568
           3
 STEP:        1315
 O      5.301560      5.252287      5.281579
 H      5.121248      6.203761      5.421873
 H      4.514963      4.816244      5.650630
           3
 STEP:        1316
 O      5.301565      5.252393      5.281342
 H      5.118734      6.203213      5.423997
 H      4.516477      4.814678      5.652698
           3
 STEP:        1317
 O      5.301571      5.252501      5.281104
 H      5.116225      6.202657      5.426117
 H      4.517980      4.813103      5.654769
           3
 STEP:        1318
 O      5.301576      5.252610      5.280867
 H      5.113723      6.202091      5.428234
 H      4.519475      4.811519      5.656844
           3
 STEP:        1319
 O      5.301581      5.252720      5.280629
 H      5.111227      6.201518      5.430347
 H      4.520963      4.809925      5.658921
           3
 STEP:        1320
 O      5.301587      5.252831      5.280392
 H      5.108740      6.200936      5.432455
 H      4.522445      4.808323      5.661001
           3
 STEP:        1321
 O      5.301592      5.252943      5.280156
 H      5.106262      6.200346      5.434558
 H      4.523923      4.806711      5.663081
           3
 STEP:        1322
 O      5.301597      5.253056      5.279919
 H      5.103793      6.199748      5.436655
 H      4.525398      4.805090      5.665162
           3
 STEP:        1323
 O      5.301602      5.253170      5.279683
 H      5.101336      6.199142      5.438744
 H      4.526871      4.803460      5.667243
           3
 STEP:        1324
 O      5.301606      5.253285      5.279446
 H      5.098888      6.198528      5.440827
 H      4.528345      4.801822      5.669324
           3
 STEP:        1325
 O      5.301610      5.253402      5.279210
 H      5.096451      6.197905      5.442903
 H      4.529821      4.800176      5.671402
           3
 STEP:        1326
 O      5.301612      5.253519      5.278975
 H      5.094025      6.197272      5.444972
 H      4.531301      4.798524      5.673478
           3
 STEP:        1327
 O      5.301614      5.253637      5.278740
 H      5.091610      6.196629      5.447033
 H      4.532787      4.796866      5.675549
           3
 STEP:        1328
 O      5.301613      5.253756      5.278505
 H      5.089206      6.195975      5.449088
 H      4.534280      4.795201      5.677616
           3
 STEP:        1329
 O      5.301612      5.253876      5.278272
 H      5.086813      6.195309      5.451135
 H      4.535782      4.793532      5.679676
           3
 STEP:        1330
 O      5.301608      5.253997      5.278039
 H      5.084434      6.194631      5.453175
 H      4.537297      4.791857      5.681730
           3
 STEP:        1331
 O      5.301603      5.254118      5.277808
 H      5.082068      6.193939      5.455207
 H      4.538826      4.790177      5.683774
           3
 STEP:        1332
 O      5.301596      5.254240      5.277578
 H      5.079717      6.193235      5.457230
 H      4.540372      4.788493      5.685810
           3
 STEP:        1333
 O      5.301587      5.254364      5.277348
 H      5.077381      6.192517      5.459245
 H      4.541935      4.786803      5.687835
           3
 STEP:        1334
 O      5.301576      5.254488      5.277120
 H      5.075062      6.191787      5.461250
 H      4.543517      4.785107      5.689849
           3
 STEP:        1335
 O      5.301563      5.254613      5.276893
 H      5.072761      6.191044      5.463245
 H      4.545121      4.783408      5.691851
           3
 STEP:        1336
 O      5.301548      5.254738      5.276667
 H      5.070476      6.190290      5.465229
 H      4.546747      4.781703      5.693839
           3
 STEP:        1337
 O      5.301531      5.254865      5.276443
 H      5.068209      6.189525      5.467203
 H      4.548397      4.779994      5.695815
           3
 STEP:        1338
 O      5.301511      5.254991      5.276221
 H      5.065960      6.188748      5.469166
 H      4.550072      4.778282      5.697775
           3
 STEP:        1339
 O      5.301489      5.255118      5.276000
 H      5.063729      6.187962      5.471117
 H      4.551773      4.776567      5.699721
           3
 STEP:        1340
 O      5.301463      5.255246      5.275780
 H      5.061515      6.187164      5.473057
 H      4.553503      4.774850      5.701650
           3
 STEP:        1341
 O      5.301435      5.255374      5.275562
 H      5.059319      6.186356      5.474985
 H      4.555261      4.773130      5.703562
           3
 STEP:        1342
 O      5.301403      5.255502      5.275346
 H      5.057141      6.185537      5.476901
 H      4.557050      4.771410      5.705455
           3
 STEP:        1343
 O      5.301368      5.255631      5.275131
 H      5.054983      6.184707      5.478804
 H      4.558870      4.769690      5.707330
           3
 STEP:        1344
 O      5.301329      5.255761      5.274918
 H      5.052844      6.183866      5.480694
 H      4.560722      4.767970      5.709184
           3
 STEP:        1345
 O      5.301287      5.255892      5.274707
 H      5.050725      6.183015      5.482570
 H      4.562608      4.766251      5.711017
           3
 STEP:        1346
 O      5.301241      5.256023      5.274497
 H      5.048626      6.182155      5.484432
 H      4.564527      4.764534      5.712828
           3
 STEP:        1347
 O      5.301191      5.256156      5.274289
 H      5.046549      6.181285      5.486280
 H      4.566482      4.762819      5.714616
           3
 STEP:        1348
 O      5.301139      5.256288      5.274084
 H      5.044492      6.180408      5.488114
 H      4.568472      4.761106      5.716381
           3
 STEP:        1349
 O      5.301082      5.256421      5.273880
 H      5.042458      6.179523      5.489933
 H      4.570499      4.759395      5.718122
           3
 STEP:        1350
 O      5.301022      5.256555      5.273679
 H      5.040445      6.178631      5.491738
 H      4.572563      4.757685      5.719839
           3
 STEP:        1351
 O      5.300959      5.256689      5.273480
 H      5.038455      6.177732      5.493529
 H      4.574664      4.755977      5.721532
           3
 STEP:        1352
 O      5.300892      5.256822      5.273283
 H      5.036487      6.176828      5.495306
 H      4.576802      4.754270      5.723200
           3
 STEP:        1353
 O      5.300821      5.256956      5.273089
 H      5.034542      6.175917      5.497069
 H      4.578980      4.752563      5.724843
           3
 STEP:        1354
 O      5.300747      5.257090      5.272897
 H      5.032618      6.175001      5.498819
 H      4.581196      4.750856      5.726461
           3
 STEP:        1355
 O      5.300669      5.257225      5.272708
 H      5.030717      6.174079      5.500553
 H      4.583451      4.749149      5.728054
           3
 STEP:        1356
 O      5.300587      5.257359      5.272521
 H      5.028838      6.173151      5.502273
 H      4.585745      4.747441      5.729622
           3
 STEP:        1357
 O      5.300502      5.257493      5.272337
 H      5.026981      6.172219      5.503977
 H      4.588079      4.745732      5.731163
           3
 STEP:        1358
 O      5.300412      5.257628      5.272156
 H      5.025147      6.171281      5.505664
 H      4.590451      4.744024      5.732679
           3
 STEP:        1359
 O      5.300319      5.257762      5.271977
 H      5.023335      6.170339      5.507335
 H      4.592862      4.742315      5.734168
           3
 STEP:        1360
 O      5.300221      5.257897      5.271800
 H      5.021546      6.169393      5.508987
 H      4.595311      4.740607      5.735631
           3
 STEP:        1361
 O      5.300120      5.258032      5.271626
 H      5.019780      6.168443      5.510621
 H      4.597797      4.738899      5.737066
           3
 STEP:        1362
 O      5.300015      5.258167      5.271454
 H      5.018037      6.167489      5.512237
 H      4.600321      4.737191      5.738475
           3
 STEP:        1363
 O      5.299905      5.258303      5.271285
 H      5.016318      6.166534      5.513834
 H      4.602881      4.735482      5.739856
           3
 STEP:        1364
 O      5.299792      5.258438      5.271118
 H      5.014623      6.165576      5.515413
 H      4.605479      4.733773      5.741210
           3
 STEP:        1365
 O      5.299675      5.258574      5.270953
 H      5.012951      6.164617      5.516975
 H      4.608114      4.732063      5.742535
           3
 STEP:        1366
 O      5.299554      5.258710      5.270790
 H      5.011303      6.163657      5.518519
 H      4.610785      4.730351      5.743834
           3
 STEP:        1367
 O      5.299429      5.258845      5.270630
 H      5.009678      6.162697      5.520047
 H      4.613494      4.728635      5.745105
           3
 STEP:        1368
 O      5.299300      5.258981      5.270473
 H      5.008077      6.161736      5.521559
 H      4.616239      4.726916      5.746350
           3
 STEP:        1369
 O      5.299169      5.259116      5.270318
 H      5.006500      6.160776      5.523055
 H      4.619019      4.725192      5.747569
           3
 STEP:        1370
 O      5.299033      5.259252      5.270166
 H      5.004945      6.159816      5.524536
 H      4.621833      4.723463      5.748763
           3
 STEP:        1371
 O      5.298894      5.259388      5.270016
 H      5.003414      6.158857      5.526001
 H      4.624682      4.721727      5.749933
           3
 STEP:        1372
 O      5.298751      5.259524      5.269869
 H      5.001906      6.157899      5.527451
 H      4.627563      4.719984      5.751079
           3
 STEP:        1373
 O      5.298605      5.259660      5.269724
 H      5.000420      6.156945      5.528885
 H      4.630477      4.718233      5.752203
           3
 STEP:        1374
 O      5.298456      5.259796      5.269581
 H      4.998957      6.155995      5.530304
 H      4.633421      4.716473      5.753305
           3
 STEP:        1375
 O      5.298304      5.259932      5.269439
 H      4.997515      6.155052      5.531707
 H      4.636395      4.714705      5.754386
           3
 STEP:        1376
 O      5.298149      5.260068      5.269300
 H      4.996095      6.154115      5.533093
 H      4.639397      4.712928      5.755445
           3
 STEP:        1377
 O      5.297991      5.260204      5.269162
 H      4.994697      6.153188      5.534464
 H      4.642426      4.711141      5.756483
           3
 STEP:        1378
 O      5.297830      5.260340      5.269026
 H      4.993320      6.152269      5.535819
 H      4.645480      4.709345      5.757502
           3
 STEP:        1379
 O      5.297666      5.260476      5.268893
 H      4.991964      6.151361      5.537158
 H      4.648557      4.707538      5.758501
           3
 STEP:        1380
 O      5.297499      5.260611      5.268761
 H      4.990629      6.150463      5.538480
 H      4.651655      4.705719      5.759482
           3
 STEP:        1381
 O      5.297329      5.260747      5.268632
 H      4.989314      6.149576      5.539787
 H      4.654774      4.703888      5.760446
           3
 STEP:        1382
 O      5.297157      5.260883      5.268504
 H      4.988019      6.148700      5.541077
 H      4.657912      4.702043      5.761393
           3
 STEP:        1383
 O      5.296982      5.261020      5.268378
 H      4.986742      6.147835      5.542353
 H      4.661069      4.700184      5.762326
           3
 STEP:        1384
 O      5.296804      5.261157      5.268254
 H      4.985484      6.146982      5.543612
 H      4.664243      4.698309      5.763244
           3
 STEP:        1385
 O      5.296625      5.261295      5.268131
 H      4.984245      6.146139      5.544856
 H      4.667435      4.696418      5.764149
           3
 STEP:        1386
 O      5.296443      5.261433      5.268010
 H      4.983023      6.145308      5.546085
 H      4.670642      4.694510      5.765042
           3
 STEP:        1387
 O      5.296259      5.261572      5.267891
 H      4.981819      6.144486      5.547300
 H      4.673866      4.692584      5.765922
           3
 STEP:        1388
 O      5.296074      5.261711      5.267774
 H      4.980632      6.143676      5.548499
 H      4.677104      4.690641      5.766790
           3
 STEP:        1389
 O      5.295886      5.261851      5.267659
 H      4.979463      6.142876      5.549684
 H      4.680355      4.688678      5.767648
           3
 STEP:        1390
 O      5.295696      5.261991      5.267545
 H      4.978310      6.142088      5.550854
 H      4.683618      4.686697      5.768495
           3
 STEP:        1391
 O      5.295504      5.262132      5.267432
 H      4.977173      6.141311      5.552011
 H      4.686892      4.684696      5.769332
           3
 STEP:        1392
 O      5.295311      5.262273      5.267320
 H      4.976052      6.140546      5.553154
 H      4.690175      4.682675      5.770160
           3
 STEP:        1393
 O      5.295115      5.262414      5.267209
 H      4.974945      6.139794      5.554284
 H      4.693467      4.680632      5.770979
           3
 STEP:        1394
 O      5.294918      5.262554      5.267098
 H      4.973853      6.139054      5.555401
 H      4.696765      4.678568      5.771789
           3
 STEP:        1395
 O      5.294720      5.262695      5.266989
 H      4.972774      6.138327      5.556506
 H      4.700071      4.676482      5.772592
           3
 STEP:        1396
 O      5.294520      5.262836      5.266879
 H      4.971709      6.137613      5.557599
 H      4.703382      4.674374      5.773389
           3
 STEP:        1397
 O      5.294318      5.262977      5.266770
 H      4.970657      6.136911      5.558681
 H      4.706699      4.672243      5.774179
           3
 STEP:        1398
 O      5.294115      5.263118      5.266662
 H      4.969619      6.136222      5.559752
 H      4.710022      4.670090      5.774964
           3
 STEP:        1399
 O      5.293910      5.263259      5.266555
 H      4.968594      6.135545      5.560812
 H      4.713348      4.667915      5.775745
           3
 STEP:        1400
 O      5.293705      5.263401      5.266449
 H      4.967581      6.134880      5.561861
 H      4.716679      4.665717      5.776522
           3
 STEP:        1401
 O      5.293499      5.263544      5.266343
 H      4.966580      6.134228      5.562901
 H      4.720013      4.663498      5.777298
           3
 STEP:        1402
 O      5.293291      5.263686      5.266238
 H      4.965591      6.133589      5.563931
 H      4.723350      4.661256      5.778071
           3
 STEP:        1403
 O      5.293083      5.263830      5.266134
 H      4.964612      6.132964      5.564952
 H      4.726688      4.658994      5.778844
           3
 STEP:        1404
 O      5.292874      5.263973      5.266031
 H      4.963644      6.132354      5.565964
 H      4.730029      4.656710      5.779616
           3
 STEP:        1405
 O      5.292664      5.264117      5.265928
 H      4.962685      6.131759      5.566967
 H      4.733370      4.654406      5.780388
           3
 STEP:        1406
 O      5.292454      5.264262      5.265825
 H      4.961736      6.131178      5.567962
 H      4.736711      4.652082      5.781159
           3
 STEP:        1407
 O      5.292242      5.264407      5.265723
 H      4.960795      6.130613      5.568948
 H      4.740053      4.649738      5.781930
           3
 STEP:        1408
 O      5.292030      5.264552      5.265621
 H      4.959862      6.130061      5.569928
 H      4.743395      4.647376      5.782700
           3
 STEP:        1409
 O      5.291818      5.264698      5.265519
 H      4.958935      6.129523      5.570900
 H      4.746738      4.644997      5.783471
           3
 STEP:        1410
 O      5.291604      5.264845      5.265418
 H      4.958015      6.128996      5.571866
 H      4.750080      4.642600      5.784242
           3
 STEP:        1411
 O      5.291390      5.264992      5.265318
 H      4.957099      6.128481      5.572826
 H      4.753424      4.640187      5.785012
           3
 STEP:        1412
 O      5.291176      5.265139      5.265218
 H      4.956189      6.127976      5.573781
 H      4.756769      4.637760      5.785782
           3
 STEP:        1413
 O      5.290960      5.265286      5.265118
 H      4.955283      6.127479      5.574729
 H      4.760116      4.635320      5.786552
           3
 STEP:        1414
 O      5.290744      5.265433      5.265018
 H      4.954381      6.126991      5.575672
 H      4.763466      4.632869      5.787319
           3
 STEP:        1415
 O      5.290527      5.265579      5.264918
 H      4.953484      6.126509      5.576609
 H      4.766818      4.630407      5.788084
           3
 STEP:        1416
 O      5.290310      5.265726      5.264819
 H      4.952591      6.126033      5.577540
 H      4.770174      4.627936      5.788847
           3
 STEP:        1417
 O      5.290092      5.265873      5.264719
 H      4.951704      6.125563      5.578466
 H      4.773532      4.625457      5.789607
           3
 STEP:        1418
 O      5.289873      5.266019      5.264620
 H      4.950822      6.125097      5.579388
 H      4.776894      4.622973      5.790363
           3
 STEP:        1419
 O      5.289655      5.266165      5.264520
 H      4.949945      6.124636      5.580305
 H      4.780258      4.620485      5.791115
           3
 STEP:        1420
 O      5.289436      5.266311      5.264421
 H      4.949073      6.124177      5.581218
 H      4.783625      4.617994      5.791863
           3
 STEP:        1421
 O      5.289216      5.266457      5.264322
 H      4.948205      6.123721      5.582129
 H      4.786996      4.615501      5.792607
           3
 STEP:        1422
 O      5.288997      5.266603      5.264223
 H      4.947342      6.123267      5.583036
 H      4.790370      4.613009      5.793347
           3
 STEP:        1423
 O      5.288777      5.266748      5.264125
 H      4.946480      6.122813      5.583942
 H      4.793747      4.610518      5.794081
           3
 STEP:        1424
 O      5.288556      5.266893      5.264027
 H      4.945620      6.122360      5.584846
 H      4.797130      4.608031      5.794809
           3
 STEP:        1425
 O      5.288335      5.267038      5.263929
 H      4.944760      6.121907      5.585749
 H      4.800518      4.605547      5.795532
           3
 STEP:        1426
 O      5.288112      5.267182      5.263832
 H      4.943899      6.121453      5.586652
 H      4.803912      4.603070      5.796248
           3
 STEP:        1427
 O      5.287889      5.267326      5.263736
 H      4.943038      6.120999      5.587556
 H      4.807314      4.600601      5.796957
           3
 STEP:        1428
 O      5.287665      5.267469      5.263639
 H      4.942174      6.120545      5.588460
 H      4.810723      4.598140      5.797658
           3
 STEP:        1429
 O      5.287440      5.267612      5.263543
 H      4.941309      6.120089      5.589365
 H      4.814141      4.595691      5.798352
           3
 STEP:        1430
 O      5.287214      5.267753      5.263447
 H      4.940441      6.119633      5.590271
 H      4.817568      4.593255      5.799038
           3
 STEP:        1431
 O      5.286988      5.267892      5.263351
 H      4.939571      6.119175      5.591180
 H      4.821004      4.590835      5.799716
           3
 STEP:        1432
 O      5.286761      5.268031      5.263255
 H      4.938697      6.118715      5.592093
 H      4.824449      4.588433      5.800385
           3
 STEP:        1433
 O      5.286534      5.268167      5.263159
 H      4.937821      6.118254      5.593008
 H      4.827902      4.586050      5.801043
           3
 STEP:        1434
 O      5.286307      5.268303      5.263064
 H      4.936943      6.117789      5.593927
 H      4.831365      4.583690      5.801691
           3
 STEP:        1435
 O      5.286079      5.268437      5.262970
 H      4.936061      6.117321      5.594850
 H      4.834837      4.581355      5.802327
           3
 STEP:        1436
 O      5.285852      5.268571      5.262876
 H      4.935177      6.116847      5.595777
 H      4.838317      4.579046      5.802950
           3
 STEP:        1437
 O      5.285623      5.268703      5.262782
 H      4.934289      6.116366      5.596708
 H      4.841807      4.576766      5.803560
           3
 STEP:        1438
 O      5.285394      5.268834      5.262689
 H      4.933400      6.115878      5.597643
 H      4.845307      4.574515      5.804155
           3
 STEP:        1439
 O      5.285165      5.268964      5.262596
 H      4.932507      6.115380      5.598581
 H      4.848816      4.572296      5.804736
           3
 STEP:        1440
 O      5.284935      5.269093      5.262503
 H      4.931612      6.114872      5.599523
 H      4.852336      4.570110      5.805302
           3
 STEP:        1441
 O      5.284705      5.269221      5.262411
 H      4.930714      6.114353      5.600469
 H      4.855866      4.567960      5.805852
           3
 STEP:        1442
 O      5.284473      5.269348      5.262319
 H      4.929812      6.113823      5.601419
 H      4.859408      4.565845      5.806385
           3
 STEP:        1443
 O      5.284242      5.269473      5.262228
 H      4.928906      6.113280      5.602374
 H      4.862960      4.563769      5.806903
           3
 STEP:        1444
 O      5.284010      5.269596      5.262137
 H      4.927996      6.112724      5.603333
 H      4.866525      4.561732      5.807404
           3
 STEP:        1445
 O      5.283777      5.269718      5.262046
 H      4.927081      6.112154      5.604299
 H      4.870100      4.559736      5.807888
           3
 STEP:        1446
 O      5.283543      5.269837      5.261956
 H      4.926159      6.111569      5.605271
 H      4.873687      4.557781      5.808355
           3
 STEP:        1447
 O      5.283309      5.269954      5.261866
 H      4.925231      6.110970      5.606250
 H      4.877284      4.555869      5.808805
           3
 STEP:        1448
 O      5.283074      5.270069      5.261777
 H      4.924296      6.110354      5.607237
 H      4.880893      4.554000      5.809238
           3
 STEP:        1449
 O      5.282838      5.270182      5.261688
 H      4.923354      6.109722      5.608232
 H      4.884511      4.552175      5.809653
           3
 STEP:        1450
 O      5.282602      5.270292      5.261599
 H      4.922405      6.109072      5.609236
 H      4.888140      4.550394      5.810050
           3
 STEP:        1451
 O      5.282366      5.270401      5.261510
 H      4.921449      6.108404      5.610250
 H      4.891778      4.548657      5.810430
           3
 STEP:        1452
 O      5.282129      5.270508      5.261422
 H      4.920486      6.107719      5.611273
 H      4.895426      4.546966      5.810791
           3
 STEP:        1453
 O      5.281892      5.270613      5.261333
 H      4.919516      6.107016      5.612305
 H      4.899083      4.545321      5.811135
           3
 STEP:        1454
 O      5.281654      5.270717      5.261245
 H      4.918541      6.106294      5.613346
 H      4.902749      4.543723      5.811462
           3
 STEP:        1455
 O      5.281417      5.270819      5.261157
 H      4.917561      6.105555      5.614396
 H      4.906425      4.542174      5.811773
           3
 STEP:        1456
 O      5.281180      5.270919      5.261069
 H      4.916576      6.104797      5.615456
 H      4.910109      4.540673      5.812067
           3
 STEP:        1457
 O      5.280943      5.271017      5.260981
 H      4.915586      6.104022      5.616525
 H      4.913802      4.539221      5.812347
           3
 STEP:        1458
 O      5.280705      5.271113      5.260894
 H      4.914592      6.103228      5.617604
 H      4.917504      4.537819      5.812612
           3
 STEP:        1459
 O      5.280468      5.271208      5.260807
 H      4.913592      6.102418      5.618693
 H      4.921214      4.536467      5.812862
           3
 STEP:        1460
 O      5.280231      5.271301      5.260719
 H      4.912586      6.101590      5.619794
 H      4.924932      4.535163      5.813099
           3
 STEP:        1461
 O      5.279993      5.271392      5.260632
 H      4.911575      6.100746      5.620907
 H      4.928657      4.533908      5.813322
           3
 STEP:        1462
 O      5.279756      5.271481      5.260545
 H      4.910557      6.099884      5.622033
 H      4.932388      4.532702      5.813531
           3
 STEP:        1463
 O      5.279519      5.271569      5.260457
 H      4.909531      6.099004      5.623172
 H      4.936125      4.531543      5.813728
           3
 STEP:        1464
 O      5.279282      5.271655      5.260370
 H      4.908496      6.098106      5.624325
 H      4.939866      4.530432      5.813912
           3
 STEP:        1465
 O      5.279044      5.271738      5.260283
 H      4.907453      6.097190      5.625493
 H      4.943610      4.529368      5.814084
           3
 STEP:        1466
 O      5.278807      5.271820      5.260195
 H      4.906399      6.096254      5.626674
 H      4.947358      4.528351      5.814246
           3
 STEP:        1467
 O      5.278571      5.271900      5.260107
 H      4.905337      6.095299      5.627869
 H      4.951107      4.527379      5.814399
           3
 STEP:        1468
 O      5.278334      5.271978      5.260019
 H      4.904264      6.094325      5.629079
 H      4.954857      4.526453      5.814543
           3
 STEP:        1469
 O      5.278099      5.272055      5.259929
 H      4.903182      6.093333      5.630302
 H      4.958608      4.525571      5.814680
           3
 STEP:        1470
 O      5.277863      5.272130      5.259839
 H      4.902090      6.092321      5.631540
 H      4.962359      4.524732      5.814811
           3
 STEP:        1471
 O      5.277628      5.272204      5.259747
 H      4.900989      6.091292      5.632791
 H      4.966109      4.523934      5.814936
           3
 STEP:        1472
 O      5.277393      5.272277      5.259655
 H      4.899879      6.090244      5.634056
 H      4.969856      4.523177      5.815057
           3
 STEP:        1473
 O      5.277158      5.272348      5.259562
 H      4.898761      6.089179      5.635334
 H      4.973600      4.522458      5.815172
           3
 STEP:        1474
 O      5.276924      5.272418      5.259469
 H      4.897636      6.088095      5.636626
 H      4.977340      4.521778      5.815284
           3
 STEP:        1475
 O      5.276690      5.272487      5.259375
 H      4.896503      6.086993      5.637931
 H      4.981076      4.521133      5.815392
           3
 STEP:        1476
 O      5.276457      5.272555      5.259280
 H      4.895362      6.085873      5.639251
 H      4.984806      4.520523      5.815499
           3
 STEP:        1477
 O      5.276225      5.272621      5.259184
 H      4.894214      6.084733      5.640585
 H      4.988532      4.519946      5.815605
           3
 STEP:        1478
 O      5.275993      5.272688      5.259086
 H      4.893059      6.083575      5.641934
 H      4.992252      4.519398      5.815712
           3
 STEP:        1479
 O      5.275762      5.272753      5.258987
 H      4.891895      6.082398      5.643299
 H      4.995967      4.518880      5.815822
           3
 STEP:        1480
 O      5.275533      5.272818      5.258887
 H      4.890723      6.081202      5.644679
 H      4.999675      4.518388      5.815937
           3
 STEP:        1481
 O      5.275303      5.272882      5.258785
 H      4.889543      6.079987      5.646075
 H      5.003376      4.517922      5.816058
           3
 STEP:        1482
 O      5.275075      5.272946      5.258682
 H      4.888355      6.078755      5.647487
 H      5.007069      4.517480      5.816186
           3
 STEP:        1483
 O      5.274848      5.273009      5.258577
 H      4.887159      6.077505      5.648915
 H      5.010752      4.517062      5.816323
           3
 STEP:        1484
 O      5.274622      5.273072      5.258470
 H      4.885955      6.076239      5.650358
 H      5.014426      4.516665      5.816469
           3
 STEP:        1485
 O      5.274396      5.273135      5.258362
 H      4.884743      6.074957      5.651817
 H      5.018089      4.516288      5.816626
           3
 STEP:        1486
 O      5.274172      5.273197      5.258252
 H      4.883525      6.073660      5.653291
 H      5.021740      4.515930      5.816795
           3
 STEP:        1487
 O      5.273949      5.273259      5.258140
 H      4.882298      6.072348      5.654780
 H      5.025380      4.515589      5.816976
           3
 STEP:        1488
 O      5.273727      5.273321      5.258026
 H      4.881065      6.071022      5.656284
 H      5.029008      4.515264      5.817170
           3
 STEP:        1489
 O      5.273506      5.273384      5.257911
 H      4.879824      6.069681      5.657803
 H      5.032625      4.514952      5.817379
           3
 STEP:        1490
 O      5.273287      5.273446      5.257793
 H      4.878575      6.068326      5.659336
 H      5.036229      4.514652      5.817605
           3
 STEP:        1491
 O      5.273068      5.273509      5.257673
 H      4.877318      6.066957      5.660883
 H      5.039822      4.514362      5.817848
           3
 STEP:        1492
 O      5.272851      5.273572      5.257552
 H      4.876054      6.065572      5.662444
 H      5.043403      4.514081      5.818108
           3
 STEP:        1493
 O      5.272635      5.273635      5.257428
 H      4.874781      6.064173      5.664020
 H      5.046972      4.513806      5.818387
           3
 STEP:        1494
 O      5.272420      5.273699      5.257301
 H      4.873501      6.062760      5.665610
 H      5.050529      4.513537      5.818685
           3
 STEP:        1495
 O      5.272206      5.273764      5.257173
 H      4.872212      6.061333      5.667215
 H      5.054073      4.513272      5.819001
           3
 STEP:        1496
 O      5.271993      5.273829      5.257042
 H      4.870916      6.059892      5.668836
 H      5.057605      4.513010      5.819336
           3
 STEP:        1497
 O      5.271781      5.273894      5.256909
 H      4.869611      6.058440      5.670473
 H      5.061125      4.512750      5.819690
           3
 STEP:        1498
 O      5.271570      5.273959      5.256774
 H      4.868299      6.056976      5.672125
 H      5.064634      4.512490      5.820064
           3
 STEP:        1499
 O      5.271360      5.274025      5.256636
 H      4.866979      6.055502      5.673793
 H      5.068129      4.512230      5.820458
           3
 STEP:        1500
 O      5.271151      5.274091      5.256496
 H      4.865652      6.054018      5.675476
 H      5.071612      4.511968      5.820873
           3
 STEP:        1501
 O      5.270944      5.274159      5.256353
 H      4.864317      6.052525      5.677175
 H      5.075081      4.511703      5.821309
           3
 STEP:        1502
 O      5.270738      5.274228      5.256208
 H      4.862974      6.051022      5.678887
 H      5.078537      4.511435      5.821769
           3
 STEP:        1503
 O      5.270533      5.274298      5.256060
 H      4.861625      6.049511      5.680613
 H      5.081978      4.511162      5.822252
           3
 STEP:        1504
 O      5.270329      5.274370      5.255910
 H      4.860270      6.047990      5.682351
 H      5.085405      4.510884      5.822760
           3
 STEP:        1505
 O      5.270126      5.274442      5.255758
 H      4.858908      6.046459      5.684103
 H      5.088818      4.510600      5.823291
           3
 STEP:        1506
 O      5.269923      5.274515      5.255604
 H      4.857541      6.044918      5.685866
 H      5.092217      4.510311      5.823846
           3
 STEP:        1507
 O      5.269721      5.274590      5.255449
 H      4.856169      6.043366      5.687643
 H      5.095603      4.510017      5.824424
           3
 STEP:        1508
 O      5.269520      5.274666      5.255291
 H      4.854793      6.041804      5.689432
 H      5.098976      4.509716      5.825023
           3
 STEP:        1509
 O      5.269320      5.274742      5.255132
 H      4.853412      6.040232      5.691235
 H      5.102339      4.509408      5.825645
           3
 STEP:        1510
 O      5.269120      5.274819      5.254971
 H      4.852028      6.038650      5.693050
 H      5.105691      4.509093      5.826287
           3
 STEP:        1511
 O      5.268921      5.274897      5.254807
 H      4.850640      6.037057      5.694877
 H      5.109035      4.508771      5.826951
           3
 STEP:        1512
 O      5.268724      5.274975      5.254642
 H      4.849249      6.035455      5.696716
 H      5.112370      4.508442      5.827634
           3
 STEP:        1513
 O      5.268527      5.275054      5.254474
 H      4.847856      6.033843      5.698565
 H      5.115697      4.508105      5.828336
           3
 STEP:        1514
 O      5.268331      5.275133      5.254305
 H      4.846460      6.032221      5.700424
 H      5.119016      4.507761      5.829058
           3
 STEP:        1515
 O      5.268136      5.275214      5.254134
 H      4.845061      6.030588      5.702291
 H      5.122327      4.507411      5.829798
           3
 STEP:        1516
 O      5.267941      5.275295      5.253961
 H      4.843660      6.028947      5.704165
 H      5.125630      4.507055      5.830555
           3
 STEP:        1517
 O      5.267747      5.275376      5.253786
 H      4.842256      6.027296      5.706045
 H      5.128925      4.506695      5.831328
           3
 STEP:        1518
 O      5.267554      5.275459      5.253610
 H      4.840850      6.025636      5.707932
 H      5.132212      4.506332      5.832117
           3
 STEP:        1519
 O      5.267361      5.275541      5.253433
 H      4.839443      6.023967      5.709824
 H      5.135490      4.505967      5.832921
           3
 STEP:        1520
 O      5.267169      5.275625      5.253254
 H      4.838033      6.022291      5.711722
 H      5.138760      4.505601      5.833737
           3
 STEP:        1521
 O      5.266977      5.275709      5.253074
 H      4.836622      6.020608      5.713624
 H      5.142023      4.505236      5.834566
           3
 STEP:        1522
 O      5.266785      5.275793      5.252893
 H      4.835210      6.018917      5.715531
 H      5.145280      4.504873      5.835403
           3
 STEP:        1523
 O      5.266593      5.275878      5.252711
 H      4.833798      6.017218      5.717442
 H      5.148532      4.504513      5.836249
           3
 STEP:        1524
 O      5.266401      5.275964      5.252529
 H      4.832386      6.015513      5.719357
 H      5.151780      4.504158      5.837099
           3
 STEP:        1525
 O      5.266210      5.276050      5.252347
 H      4.830974      6.013799      5.721274
 H      5.155025      4.503808      5.837954
           3
 STEP:        1526
 O      5.266018      5.276137      5.252164
 H      4.829563      6.012078      5.723193
 H      5.158268      4.503466      5.838810
           3
 STEP:        1527
 O      5.265826      5.276224      5.251981
 H      4.828152      6.010347      5.725115
 H      5.161509      4.503133      5.839666
           3
 STEP:        1528
 O      5.265635      5.276311      5.251798
 H      4.826742      6.008608      5.727038
 H      5.164750      4.502809      5.840521
           3
 STEP:        1529
 O      5.265443      5.276398      5.251616
 H      4.825333      6.006860      5.728962
 H      5.167990      4.502496      5.841375
           3
 STEP:        1530
 O      5.265251      5.276485      5.251433
 H      4.823925      6.005103      5.730887
 H      5.171230      4.502194      5.842226
           3
 STEP:        1531
 O      5.265059      5.276571      5.251250
 H      4.822518      6.003336      5.732812
 H      5.174469      4.501903      5.843073
           3
 STEP:        1532
 O      5.264867      5.276658      5.251068
 H      4.821113      6.001560      5.734737
 H      5.177708      4.501625      5.843913
           3
 STEP:        1533
 O      5.264674      5.276744      5.250887
 H      4.819711      5.999775      5.736661
 H      5.180946      4.501359      5.844747
           3
 STEP:        1534
 O      5.264481      5.276829      5.250706
 H      4.818312      5.997980      5.738584
 H      5.184183      4.501107      5.845570
           3
 STEP:        1535
 O      5.264287      5.276913      5.250525
 H      4.816916      5.996177      5.740503
 H      5.187419      4.500870      5.846383
           3
 STEP:        1536
 O      5.264093      5.276997      5.250346
 H      4.815526      5.994365      5.742417
 H      5.190654      4.500649      5.847183
           3
 STEP:        1537
 O      5.263898      5.277079      5.250168
 H      4.814140      5.992543      5.744327
 H      5.193890      4.500444      5.847968
           3
 STEP:        1538
 O      5.263703      5.277160      5.249991
 H      4.812761      5.990713      5.746230
 H      5.197126      4.500258      5.848737
           3
 STEP:        1539
 O      5.263507      5.277240      5.249815
 H      4.811388      5.988874      5.748127
 H      5.200364      4.500091      5.849490
           3
 STEP:        1540
 O      5.263311      5.277320      5.249640
 H      4.810021      5.987026      5.750018
 H      5.203604      4.499944      5.850225
           3
 STEP:        1541
 O      5.263114      5.277399      5.249467
 H      4.808661      5.985169      5.751901
 H      5.206848      4.499819      5.850941
           3
 STEP:        1542
 O      5.262917      5.277477      5.249296
 H      4.807308      5.983305      5.753776
 H      5.210096      4.499716      5.851638
           3
 STEP:        1543
 O      5.262719      5.277554      5.249127
 H      4.805961      5.981434      5.755642
 H      5.213347      4.499636      5.852315
           3
 STEP:        1544
 O      5.262521      5.277631      5.248960
 H      4.804622      5.979555      5.757499
 H      5.216603      4.499581      5.852970
           3
 STEP:        1545
 O      5.262322      5.277708      5.248794
 H      4.803290      5.977671      5.759346
 H      5.219863      4.499552      5.853602
           3
 STEP:        1546
 O      5.262122      5.277783      5.248632
 H      4.801965      5.975780      5.761183
 H      5.223126      4.499549      5.854210
           3
 STEP:        1547
 O      5.261921      5.277858      5.248471
 H      4.800649      5.973883      5.763008
 H      5.226392      4.499574      5.854792
           3
 STEP:        1548
 O      5.261720      5.277931      5.248313
 H      4.799341      5.971980      5.764821
 H      5.229663      4.499629      5.855347
           3
 STEP:        1549
 O      5.261518      5.278003      5.248158
 H      4.798040      5.970072      5.766621
 H      5.232937      4.499712      5.855873
           3
 STEP:        1550
 O      5.261314      5.278074      5.248006
 H      4.796748      5.968158      5.768408
 H      5.236216      4.499826      5.856369
           3
 STEP:        1551
 O      5.261109      5.278143      5.247856
 H      4.795463      5.966238      5.770180
 H      5.239499      4.499970      5.856834
           3
 STEP:        1552
 O      5.260904      5.278210      5.247710
 H      4.794186      5.964313      5.771937
 H      5.242787      4.500143      5.857267
           3
 STEP:        1553
 O      5.260697      5.278276      5.247567
 H      4.792917      5.962382      5.773677
 H      5.246080      4.500345      5.857669
           3
 STEP:        1554
 O      5.260489      5.278339      5.247426
 H      4.791657      5.960444      5.775401
 H      5.249377      4.500576      5.858037
           3
 STEP:        1555
 O      5.260281      5.278402      5.247289
 H      4.790405      5.958501      5.777108
 H      5.252679      4.500835      5.858371
           3
 STEP:        1556
 O      5.260071      5.278463      5.247154
 H      4.789163      5.956550      5.778797
 H      5.255987      4.501122      5.858672
           3
 STEP:        1557
 O      5.259861      5.278523      5.247022
 H      4.787932      5.954594      5.780467
 H      5.259300      4.501436      5.858937
           3
 STEP:        1558
 O      5.259649      5.278582      5.246892
 H      4.786711      5.952631      5.782118
 H      5.262620      4.501776      5.859169
           3
 STEP:        1559
 O      5.259437      5.278639      5.246766
 H      4.785501      5.950662      5.783750
 H      5.265946      4.502144      5.859365
           3
 STEP:        1560
 O      5.259224      5.278694      5.246644
 H      4.784301      5.948688      5.785362
 H      5.269280      4.502537      5.859525
           3
 STEP:        1561
 O      5.259010      5.278748      5.246524
 H      4.783111      5.946710      5.786954
 H      5.272622      4.502956      5.859650
           3
 STEP:        1562
 O      5.258795      5.278801      5.246408
 H      4.781932      5.944729      5.788526
 H      5.275971      4.503401      5.859739
           3
 STEP:        1563
 O      5.258579      5.278852      5.246296
 H      4.780761      5.942745      5.790079
 H      5.279329      4.503869      5.859792
           3
 STEP:        1564
 O      5.258361      5.278901      5.246187
 H      4.779599      5.940759      5.791611
 H      5.282694      4.504361      5.859810
           3
 STEP:        1565
 O      5.258143      5.278950      5.246081
 H      4.778446      5.938772      5.793124
 H      5.286066      4.504874      5.859794
           3
 STEP:        1566
 O      5.257924      5.278997      5.245979
 H      4.777302      5.936784      5.794617
 H      5.289443      4.505408      5.859743
           3
 STEP:        1567
 O      5.257703      5.279043      5.245882
 H      4.776167      5.934795      5.796089
 H      5.292826      4.505962      5.859659
           3
 STEP:        1568
 O      5.257482      5.279088      5.245787
 H      4.775040      5.932807      5.797540
 H      5.296214      4.506535      5.859541
           3
 STEP:        1569
 O      5.257259      5.279133      5.245697
 H      4.773923      5.930820      5.798970
 H      5.299606      4.507127      5.859390
           3
 STEP:        1570
 O      5.257035      5.279176      5.245610
 H      4.772814      5.928835      5.800379
 H      5.303004      4.507736      5.859206
           3
 STEP:        1571
 O      5.256810      5.279219      5.245526
 H      4.771713      5.926853      5.801767
 H      5.306407      4.508363      5.858989
           3
 STEP:        1572
 O      5.256583      5.279260      5.245446
 H      4.770621      5.924875      5.803134
 H      5.309818      4.509005      5.858739
           3
 STEP:        1573
 O      5.256356      5.279301      5.245368
 H      4.769536      5.922902      5.804479
 H      5.313236      4.509662      5.858458
           3
 STEP:        1574
 O      5.256128      5.279340      5.245294
 H      4.768459      5.920935      5.805802
 H      5.316662      4.510332      5.858144
           3
 STEP:        1575
 O      5.255899      5.279378      5.245223
 H      4.767389      5.918974      5.807103
 H      5.320098      4.511014      5.857799
           3
 STEP:        1576
 O      5.255669      5.279416      5.245155
 H      4.766325      5.917019      5.808381
 H      5.323542      4.511705      5.857423
           3
 STEP:        1577
 O      5.255439      5.279452      5.245090
 H      4.765268      5.915070      5.809635
 H      5.326995      4.512405      5.857017
           3
 STEP:        1578
 O      5.255207      5.279487      5.245028
 H      4.764217      5.913126      5.810867
 H      5.330457      4.513112      5.856582
           3
 STEP:        1579
 O      5.254974      5.279522      5.244969
 H      4.763173      5.911189      5.812074
 H      5.333927      4.513823      5.856118
           3
 STEP:        1580
 O      5.254740      5.279556      5.244913
 H      4.762135      5.909257      5.813259
 H      5.337406      4.514537      5.855627
           3
 STEP:        1581
 O      5.254506      5.279589      5.244860
 H      4.761102      5.907331      5.814420
 H      5.340894      4.515253      5.855111
           3
 STEP:        1582
 O      5.254270      5.279622      5.244810
 H      4.760075      5.905411      5.815560
 H      5.344391      4.515969      5.854570
           3
 STEP:        1583
 O      5.254033      5.279653      5.244763
 H      4.759052      5.903498      5.816677
 H      5.347898      4.516684      5.854006
           3
 STEP:        1584
 O      5.253795      5.279685      5.244719
 H      4.758034      5.901592      5.817772
 H      5.351415      4.517396      5.853420
           3
 STEP:        1585
 O      5.253556      5.279715      5.244678
 H      4.757020      5.899696      5.818846
 H      5.354944      4.518103      5.852812
           3
 STEP:        1586
 O      5.253316      5.279746      5.244640
 H      4.756009      5.897809      5.819898
 H      5.358483      4.518804      5.852185
           3
 STEP:        1587
 O      5.253075      5.279776      5.244604
 H      4.755000      5.895933      5.820929
 H      5.362034      4.519496      5.851538
           3
 STEP:        1588
 O      5.252833      5.279806      5.244571
 H      4.753994      5.894069      5.821940
 H      5.365595      4.520178      5.850874
           3
 STEP:        1589
 O      5.252590      5.279836      5.244540
 H      4.752989      5.892218      5.822931
 H      5.369168      4.520847      5.850193
           3
 STEP:        1590
 O      5.252346      5.279865      5.244512
 H      4.751986      5.890381      5.823902
 H      5.372751      4.521504      5.849497
           3
 STEP:        1591
 O      5.252102      5.279895      5.244486
 H      4.750984      5.888559      5.824855
 H      5.376346      4.522146      5.848786
           3
 STEP:        1592
 O      5.251857      5.279925      5.244461
 H      4.749983      5.886752      5.825789
 H      5.379952      4.522773      5.848061
           3
 STEP:        1593
 O      5.251611      5.279955      5.244439
 H      4.748982      5.884960      5.826705
 H      5.383570      4.523384      5.847322
           3
 STEP:        1594
 O      5.251365      5.279985      5.244418
 H      4.747982      5.883184      5.827602
 H      5.387201      4.523979      5.846571
           3
 STEP:        1595
 O      5.251118      5.280016      5.244399
 H      4.746981      5.881423      5.828481
 H      5.390846      4.524557      5.845807
           3
 STEP:        1596
 O      5.250870      5.280047      5.244382
 H      4.745979      5.879677      5.829343
 H      5.394505      4.525119      5.845033
           3
 STEP:        1597
 O      5.250621      5.280078      5.244368
 H      4.744977      5.877946      5.830186
 H      5.398179      4.525663      5.844248
           3
 STEP:        1598
 O      5.250372      5.280109      5.244355
 H      4.743973      5.876230      5.831013
 H      5.401867      4.526190      5.843453
           3
 STEP:        1599
 O      5.250122      5.280140      5.244344
 H      4.742967      5.874531      5.831823
 H      5.405569      4.526698      5.842649
           3
 STEP:        1600
 O      5.249871      5.280172      5.244334
 H      4.741959      5.872847      5.832617
 H      5.409285      4.527188      5.841836
           3
 STEP:        1601
 O      5.249618      5.280204      5.244326
 H      4.740947      5.871179      5.833395
 H      5.413014      4.527657      5.841015
           3
 STEP:        1602
 O      5.249365      5.280236      5.244320
 H      4.739932      5.869528      5.834159
 H      5.416754      4.528107      5.840185
           3
 STEP:        1603
 O      5.249111      5.280268      5.244315
 H      4.738914      5.867893      5.834909
 H      5.420507      4.528535      5.839347
           3
 STEP:        1604
 O      5.248856      5.280300      5.244312
 H      4.737892      5.866275      5.835646
 H      5.424271      4.528942      5.838501
           3
 STEP:        1605
 O      5.248601      5.280332      5.244310
 H      4.736867      5.864672      5.836369
 H      5.428047      4.529326      5.837646
           3
 STEP:        1606
 O      5.248346      5.280365      5.244309
 H      4.735838      5.863086      5.837080
 H      5.431834      4.529689      5.836784
           3
 STEP:        1607
 O      5.248090      5.280397      5.244309
 H      4.734805      5.861515      5.837779
 H      5.435634      4.530031      5.835914
           3
 STEP:        1608
 O      5.247833      5.280430      5.244310
 H      4.733769      5.859961      5.838465
 H      5.439447      4.530352      5.835036
           3
 STEP:        1609
 O      5.247576      5.280463      5.244312
 H      4.732728      5.858422      5.839139
 H      5.443273      4.530654      5.834150
           3
 STEP:        1610
 O      5.247319      5.280496      5.244316
 H      4.731684      5.856898      5.839802
 H      5.447111      4.530937      5.833256
           3
 STEP:        1611
 O      5.247062      5.280529      5.244321
 H      4.730636      5.855389      5.840455
 H      5.450963      4.531202      5.832354
           3
 STEP:        1612
 O      5.246804      5.280561      5.244328
 H      4.729583      5.853896      5.841097
 H      5.454827      4.531449      5.831445
           3
 STEP:        1613
 O      5.246547      5.280594      5.244335
 H      4.728525      5.852416      5.841730
 H      5.458702      4.531680      5.830529
           3
 STEP:        1614
 O      5.246289      5.280627      5.244343
 H      4.727462      5.850952      5.842353
 H      5.462588      4.531895      5.829607
           3
 STEP:        1615
 O      5.246030      5.280660      5.244352
 H      4.726394      5.849501      5.842968
 H      5.466485      4.532095      5.828680
           3
 STEP:        1616
 O      5.245772      5.280693      5.244362
 H      4.725320      5.848065      5.843574
 H      5.470390      4.532281      5.827747
           3
 STEP:        1617
 O      5.245514      5.280726      5.244373
 H      4.724241      5.846643      5.844172
 H      5.474304      4.532454      5.826808
           3
 STEP:        1618
 O      5.245255      5.280759      5.244385
 H      4.723157      5.845233      5.844762
 H      5.478227      4.532616      5.825864
           3
 STEP:        1619
 O      5.244996      5.280792      5.244399
 H      4.722067      5.843838      5.845345
 H      5.482159      4.532768      5.824913
           3
 STEP:        1620
 O      5.244737      5.280825      5.244413
 H      4.720971      5.842455      5.845921
 H      5.486098      4.532912      5.823954
           3
 STEP:        1621
 O      5.244478      5.280858      5.244429
 H      4.719869      5.841086      5.846491
 H      5.490045      4.533049      5.822988
           3
 STEP:        1622
 O      5.244218      5.280890      5.244446
 H      4.718761      5.839729      5.847056
 H      5.493999      4.533181      5.822013
           3
 STEP:        1623
 O      5.243958      5.280921      5.244463
 H      4.717647      5.838384      5.847616
 H      5.497959      4.533310      5.821028
           3
 STEP:        1624
 O      5.243697      5.280952      5.244481
 H      4.716528      5.837051      5.848171
 H      5.501924      4.533437      5.820033
           3
 STEP:        1625
 O      5.243437      5.280981      5.244501
 H      4.715403      5.835728      5.848721
 H      5.505893      4.533563      5.819026
           3
 STEP:        1626
 O      5.243176      5.281010      5.244521
 H      4.714275      5.834414      5.849267
 H      5.509863      4.533691      5.818008
           3
 STEP:        1627
 O      5.242916      5.281038      5.244542
 H      4.713142      5.833108      5.849809
 H      5.513835      4.533822      5.816977
           3
 STEP:        1628
 O      5.242656      5.281065      5.244564
 H      4.712007      5.831809      5.850348
 H      5.517806      4.533957      5.815934
           3
 STEP:        1629
 O      5.242396      5.281091      5.244587
 H      4.710870      5.830516      5.850883
 H      5.521777      4.534099      5.814878
           3
 STEP:        1630
 O      5.242136      5.281117      5.244610
 H      4.709731      5.829228      5.851416
 H      5.525745      4.534250      5.813808
           3
 STEP:        1631
 O      5.241876      5.281142      5.244635
 H      4.708590      5.827944      5.851946
 H      5.529712      4.534412      5.812723
           3
 STEP:        1632
 O      5.241617      5.281166      5.244661
 H      4.707447      5.826665      5.852473
 H      5.533677      4.534586      5.811622
           3
 STEP:        1633
 O      5.241358      5.281189      5.244687
 H      4.706303      5.825389      5.852998
 H      5.537639      4.534775      5.810505
           3
 STEP:        1634
 O      5.241100      5.281211      5.244715
 H      4.705158      5.824116      5.853522
 H      5.541598      4.534981      5.809369
           3
 STEP:        1635
 O      5.240843      5.281232      5.244744
 H      4.704012      5.822843      5.854044
 H      5.545551      4.535205      5.808216
           3
 STEP:        1636
 O      5.240586      5.281251      5.244774
 H      4.702866      5.821572      5.854565
 H      5.549497      4.535449      5.807045
           3
 STEP:        1637
 O      5.240331      5.281269      5.244806
 H      4.701720      5.820300      5.855086
 H      5.553434      4.535713      5.805856
           3
 STEP:        1638
 O      5.240075      5.281284      5.244839
 H      4.700575      5.819027      5.855607
 H      5.557359      4.535999      5.804651
           3
 STEP:        1639
 O      5.239821      5.281298      5.244874
 H      4.699429      5.817752      5.856128
 H      5.561272      4.536309      5.803428
           3
 STEP:        1640
 O      5.239567      5.281311      5.244910
 H      4.698283      5.816475      5.856650
 H      5.565171      4.536644      5.802188
           3
 STEP:        1641
 O      5.239314      5.281322      5.244946
 H      4.697139      5.815196      5.857172
 H      5.569056      4.537005      5.800931
           3
 STEP:        1642
 O      5.239062      5.281331      5.244983
 H      4.695996      5.813913      5.857694
 H      5.572928      4.537396      5.799656
           3
 STEP:        1643
 O      5.238811      5.281339      5.245022
 H      4.694855      5.812627      5.858218
 H      5.576785      4.537818      5.798363
           3
 STEP:        1644
 O      5.238560      5.281345      5.245061
 H      4.693717      5.811337      5.858741
 H      5.580627      4.538273      5.797050
           3
 STEP:        1645
 O      5.238311      5.281351      5.245101
 H      4.692584      5.810041      5.859266
 H      5.584455      4.538762      5.795719
           3
 STEP:        1646
 O      5.238062      5.281355      5.245142
 H      4.691456      5.808739      5.859790
 H      5.588266      4.539287      5.794369
           3
 STEP:        1647
 O      5.237815      5.281357      5.245184
 H      4.690333      5.807430      5.860315
 H      5.592059      4.539848      5.792999
           3
 STEP:        1648
 O      5.237568      5.281358      5.245227
 H      4.689216      5.806112      5.860840
 H      5.595832      4.540448      5.791610
           3
 STEP:        1649
 O      5.237323      5.281357      5.245272
 H      4.688107      5.804784      5.861366
 H      5.599584      4.541086      5.790202
           3
 STEP:        1650
 O      5.237078      5.281354      5.245317
 H      4.687004      5.803444      5.861893
 H      5.603312      4.541763      5.788775
           3
 STEP:        1651
 O      5.236834      5.281348      5.245364
 H      4.685909      5.802093      5.862421
 H      5.607016      4.542479      5.787329
           3
 STEP:        1652
 O      5.236591      5.281341      5.245412
 H      4.684821      5.800728      5.862951
 H      5.610694      4.543236      5.785864
           3
 STEP:        1653
 O      5.236348      5.281332      5.245460
 H      4.683741      5.799350      5.863485
 H      5.614348      4.544033      5.784381
           3
 STEP:        1654
 O      5.236106      5.281321      5.245509
 H      4.682670      5.797959      5.864021
 H      5.617976      4.544871      5.782880
           3
 STEP:        1655
 O      5.235865      5.281309      5.245559
 H      4.681606      5.796554      5.864561
 H      5.621579      4.545750      5.781362
           3
 STEP:        1656
 O      5.235626      5.281294      5.245609
 H      4.680551      5.795136      5.865105
 H      5.625157      4.546670      5.779827
           3
 STEP:        1657
 O      5.235387      5.281278      5.245660
 H      4.679506      5.793705      5.865653
 H      5.628711      4.547632      5.778276
           3
 STEP:        1658
 O      5.235150      5.281260      5.245712
 H      4.678470      5.792261      5.866206
 H      5.632240      4.548635      5.776710
           3
 STEP:        1659
 O      5.234914      5.281242      5.245764
 H      4.677444      5.790804      5.866763
 H      5.635743      4.549680      5.775128
           3
 STEP:        1660
 O      5.234679      5.281222      5.245817
 H      4.676429      5.789334      5.867325
 H      5.639220      4.550767      5.773533
           3
 STEP:        1661
 O      5.234446      5.281202      5.245870
 H      4.675426      5.787850      5.867891
 H      5.642669      4.551895      5.771925
           3
 STEP:        1662
 O      5.234213      5.281179      5.245923
 H      4.674433      5.786350      5.868462
 H      5.646091      4.553063      5.770305
           3
 STEP:        1663
 O      5.233982      5.281155      5.245977
 H      4.673453      5.784834      5.869038
 H      5.649485      4.554271      5.768675
           3
 STEP:        1664
 O      5.233752      5.281130      5.246030
 H      4.672484      5.783301      5.869619
 H      5.652850      4.555518      5.767034
           3
 STEP:        1665
 O      5.233524      5.281103      5.246084
 H      4.671528      5.781750      5.870205
 H      5.656188      4.556804      5.765385
           3
 STEP:        1666
 O      5.233296      5.281074      5.246137
 H      4.670583      5.780179      5.870798
 H      5.659497      4.558129      5.763729
           3
 STEP:        1667
 O      5.233069      5.281044      5.246191
 H      4.669650      5.778587      5.871397
 H      5.662778      4.559490      5.762067
           3
 STEP:        1668
 O      5.232843      5.281013      5.246244
 H      4.668728      5.776974      5.872003
 H      5.666033      4.560889      5.760399
           3
 STEP:        1669
 O      5.232617      5.280980      5.246297
 H      4.667818      5.775340      5.872616
 H      5.669260      4.562323      5.758728
           3
 STEP:        1670
 O      5.232392      5.280947      5.246350
 H      4.666921      5.773685      5.873235
 H      5.672460      4.563792      5.757054
           3
 STEP:        1671
 O      5.232168      5.280912      5.246403
 H      4.666035      5.772008      5.873862
 H      5.675633      4.565295      5.755378
           3
 STEP:        1672
 O      5.231944      5.280876      5.246455
 H      4.665163      5.770310      5.874495
 H      5.678780      4.566831      5.753703
           3
 STEP:        1673
 O      5.231721      5.280840      5.246507
 H      4.664305      5.768591      5.875136
 H      5.681900      4.568398      5.752028
           3
 STEP:        1674
 O      5.231499      5.280804      5.246558
 H      4.663461      5.766853      5.875786
 H      5.684993      4.569997      5.750355
           3
 STEP:        1675
 O      5.231278      5.280766      5.246608
 H      4.662634      5.765095      5.876443
 H      5.688061      4.571625      5.748685
           3
 STEP:        1676
 O      5.231058      5.280728      5.246658
 H      4.661823      5.763318      5.877109
 H      5.691104      4.573281      5.747018
           3
 STEP:        1677
 O      5.230839      5.280690      5.246707
 H      4.661030      5.761523      5.877784
 H      5.694123      4.574965      5.745355
           3
 STEP:        1678
 O      5.230621      5.280653      5.246754
 H      4.660253      5.759709      5.878469
 H      5.697119      4.576675      5.743697
           3
 STEP:        1679
 O      5.230403      5.280615      5.246801
 H      4.659493      5.757876      5.879164
 H      5.700093      4.578409      5.742046
           3
 STEP:        1680
 O      5.230186      5.280577      5.246845
 H      4.658749      5.756024      5.879870
 H      5.703046      4.580166      5.740403
           3
 STEP:        1681
 O      5.229969      5.280539      5.246888
 H      4.658020      5.754154      5.880587
 H      5.705979      4.581945      5.738769
           3
 STEP:        1682
 O      5.229753      5.280501      5.246929
 H      4.657305      5.752264      5.881316
 H      5.708894      4.583743      5.737146
           3
 STEP:        1683
 O      5.229537      5.280463      5.246968
 H      4.656602      5.750355      5.882057
 H      5.711790      4.585559      5.735536
           3
 STEP:        1684
 O      5.229321      5.280425      5.247005
 H      4.655911      5.748427      5.882812
 H      5.714668      4.587391      5.733940
           3
 STEP:        1685
 O      5.229106      5.280388      5.247041
 H      4.655231      5.746479      5.883581
 H      5.717527      4.589239      5.732361
           3
 STEP:        1686
 O      5.228890      5.280351      5.247074
 H      4.654562      5.744511      5.884365
 H      5.720370      4.591099      5.730800
           3
 STEP:        1687
 O      5.228675      5.280314      5.247105
 H      4.653903      5.742524      5.885163
 H      5.723195      4.592971      5.729259
           3
 STEP:        1688
 O      5.228460      5.280278      5.247134
 H      4.653255      5.740517      5.885976
 H      5.726005      4.594852      5.727739
           3
 STEP:        1689
 O      5.228246      5.280242      5.247161
 H      4.652619      5.738491      5.886804
 H      5.728800      4.596741      5.726241
           3
 STEP:        1690
 O      5.228031      5.280207      5.247186
 H      4.651995      5.736446      5.887647
 H      5.731582      4.598637      5.724766
           3
 STEP:        1691
 O      5.227816      5.280173      5.247208
 H      4.651383      5.734382      5.888505
 H      5.734353      4.600539      5.723314
           3
 STEP:        1692
 O      5.227600      5.280139      5.247229
 H      4.650784      5.732301      5.889379
 H      5.737114      4.602445      5.721886
           3
 STEP:        1693
 O      5.227385      5.280106      5.247247
 H      4.650197      5.730202      5.890268
 H      5.739867      4.604354      5.720483
           3
 STEP:        1694
 O      5.227169      5.280074      5.247262
 H      4.649624      5.728086      5.891173
 H      5.742614      4.606265      5.719107
           3
 STEP:        1695
 O      5.226953      5.280042      5.247274
 H      4.649064      5.725953      5.892094
 H      5.745354      4.608176      5.717758
           3
 STEP:        1696
 O      5.226736      5.280011      5.247283
 H      4.648516      5.723804      5.893031
 H      5.748090      4.610087      5.716438
           3
 STEP:        1697
 O      5.226519      5.279982      5.247289
 H      4.647981      5.721638      5.893985
 H      5.750822      4.611995      5.715146
           3
 STEP:        1698
 O      5.226302      5.279953      5.247291
 H      4.647459      5.719456      5.894956
 H      5.753551      4.613901      5.713883
           3
 STEP:        1699
 O      5.226086      5.279926      5.247291
 H      4.646949      5.717258      5.895944
 H      5.756277      4.615802      5.712651
           3
 STEP:        1700
 O      5.225869      5.279899      5.247287
 H      4.646452      5.715044      5.896950
 H      5.759002      4.617699      5.711449
           3
 STEP:        1701
 O      5.225651      5.279875      5.247280
 H      4.645966      5.712815      5.897975
 H      5.761727      4.619591      5.710277
           3
 STEP:        1702
 O      5.225434      5.279851      5.247269
 H      4.645492      5.710571      5.899018
 H      5.764452      4.621477      5.709136
           3
 STEP:        1703
 O      5.225217      5.279829      5.247256
 H      4.645029      5.708312      5.900081
 H      5.767177      4.623356      5.708028
           3
 STEP:        1704
 O      5.224999      5.279809      5.247239
 H      4.644575      5.706038      5.901163
 H      5.769901      4.625227      5.706951
           3
 STEP:        1705
 O      5.224780      5.279790      5.247219
 H      4.644131      5.703750      5.902265
 H      5.772625      4.627091      5.705908
           3
 STEP:        1706
 O      5.224561      5.279772      5.247196
 H      4.643695      5.701448      5.903386
 H      5.775347      4.628946      5.704898
           3
 STEP:        1707
 O      5.224340      5.279756      5.247170
 H      4.643268      5.699132      5.904528
 H      5.778067      4.630792      5.703921
           3
 STEP:        1708
 O      5.224119      5.279740      5.247140
 H      4.642849      5.696802      5.905690
 H      5.780785      4.632629      5.702978
           3
 STEP:        1709
 O      5.223897      5.279726      5.247108
 H      4.642438      5.694460      5.906873
 H      5.783503      4.634458      5.702067
           3
 STEP:        1710
 O      5.223674      5.279713      5.247073
 H      4.642034      5.692104      5.908077
 H      5.786220      4.636278      5.701189
           3
 STEP:        1711
 O      5.223451      5.279702      5.247034
 H      4.641639      5.689736      5.909301
 H      5.788937      4.638088      5.700342
           3
 STEP:        1712
 O      5.223228      5.279692      5.246992
 H      4.641251      5.687357      5.910547
 H      5.791655      4.639891      5.699527
           3
 STEP:        1713
 O      5.223004      5.279684      5.246946
 H      4.640871      5.684966      5.911814
 H      5.794374      4.641685      5.698740
           3
 STEP:        1714
 O      5.222781      5.279678      5.246897
 H      4.640498      5.682565      5.913101
 H      5.797095      4.643473      5.697983
           3
 STEP:        1715
 O      5.222557      5.279672      5.246845
 H      4.640133      5.680152      5.914409
 H      5.799817      4.645253      5.697255
           3
 STEP:        1716
 O      5.222333      5.279668      5.246789
 H      4.639777      5.677728      5.915736
 H      5.802540      4.647029      5.696554
           3
 STEP:        1717
 O      5.222108      5.279664      5.246730
 H      4.639427      5.675292      5.917083
 H      5.805262      4.648799      5.695881
           3
 STEP:        1718
 O      5.221883      5.279661      5.246668
 H      4.639086      5.672843      5.918449
 H      5.807984      4.650566      5.695234
           3
 STEP:        1719
 O      5.221658      5.279658      5.246603
 H      4.638752      5.670382      5.919833
 H      5.810703      4.652330      5.694614
           3
 STEP:        1720
 O      5.221432      5.279656      5.246536
 H      4.638426      5.667909      5.921235
 H      5.813419      4.654091      5.694019
           3
 STEP:        1721
 O      5.221206      5.279654      5.246465
 H      4.638109      5.665423      5.922655
 H      5.816130      4.655852      5.693449
           3
 STEP:        1722
 O      5.220980      5.279653      5.246392
 H      4.637801      5.662924      5.924092
 H      5.818835      4.657611      5.692903
           3
 STEP:        1723
 O      5.220754      5.279653      5.246317
 H      4.637503      5.660413      5.925547
 H      5.821536      4.659371      5.692379
           3
 STEP:        1724
 O      5.220527      5.279653      5.246239
 H      4.637215      5.657892      5.927018
 H      5.824230      4.661131      5.691877
           3
 STEP:        1725
 O      5.220301      5.279653      5.246159
 H      4.636937      5.655359      5.928506
 H      5.826919      4.662894      5.691397
           3
 STEP:        1726
 O      5.220074      5.279654      5.246077
 H      4.636668      5.652816      5.930009
 H      5.829599      4.664659      5.690936
           3
 STEP:        1727
 O      5.219847      5.279656      5.245993
 H      4.636408      5.650264      5.931528
 H      5.832272      4.666427      5.690496
           3
 STEP:        1728
 O      5.219620      5.279658      5.245906
 H      4.636156      5.647703      5.933062
 H      5.834936      4.668200      5.690073
           3
 STEP:        1729
 O      5.219393      5.279660      5.245818
 H      4.635913      5.645134      5.934610
 H      5.837590      4.669977      5.689668
           3
 STEP:        1730
 O      5.219167      5.279662      5.245727
 H      4.635679      5.642555      5.936171
 H      5.840234      4.671761      5.689279
           3
 STEP:        1731
 O      5.218942      5.279665      5.245635
 H      4.635453      5.639968      5.937745
 H      5.842867      4.673552      5.688904
           3
 STEP:        1732
 O      5.218717      5.279667      5.245541
 H      4.635237      5.637372      5.939331
 H      5.845487      4.675350      5.688542
           3
 STEP:        1733
 O      5.218492      5.279670      5.245445
 H      4.635031      5.634765      5.940928
 H      5.848093      4.677157      5.688193
           3
 STEP:        1734
 O      5.218267      5.279672      5.245349
 H      4.634834      5.632147      5.942535
 H      5.850684      4.678974      5.687854
           3
 STEP:        1735
 O      5.218042      5.279675      5.245250
 H      4.634649      5.629516      5.944150
 H      5.853259      4.680802      5.687525
           3
 STEP:        1736
 O      5.217818      5.279678      5.245151
 H      4.634474      5.626874      5.945774
 H      5.855815      4.682643      5.687203
           3
 STEP:        1737
 O      5.217595      5.279680      5.245051
 H      4.634312      5.624219      5.947405
 H      5.858352      4.684498      5.686887
           3
 STEP:        1738
 O      5.217372      5.279683      5.244950
 H      4.634162      5.621552      5.949043
 H      5.860868      4.686369      5.686574
           3
 STEP:        1739
 O      5.217150      5.279684      5.244848
 H      4.634024      5.618873      5.950686
 H      5.863361      4.688256      5.686264
           3
 STEP:        1740
 O      5.216928      5.279686      5.244746
 H      4.633899      5.616183      5.952335
 H      5.865831      4.690162      5.685955
           3
 STEP:        1741
 O      5.216708      5.279687      5.244644
 H      4.633787      5.613483      5.953988
 H      5.868278      4.692087      5.685644
           3
 STEP:        1742
 O      5.216488      5.279687      5.244542
 H      4.633687      5.610772      5.955644
 H      5.870700      4.694032      5.685332
           3
 STEP:        1743
 O      5.216269      5.279687      5.244439
 H      4.633600      5.608051      5.957303
 H      5.873097      4.695997      5.685016
           3
 STEP:        1744
 O      5.216051      5.279686      5.244336
 H      4.633526      5.605322      5.958963
 H      5.875468      4.697982      5.684696
           3
 STEP:        1745
 O      5.215834      5.279685      5.244233
 H      4.633464      5.602584      5.960623
 H      5.877813      4.699989      5.684373
           3
 STEP:        1746
 O      5.215617      5.279683      5.244130
 H      4.633416      5.599836      5.962283
 H      5.880130      4.702017      5.684045
           3
 STEP:        1747
 O      5.215402      5.279679      5.244027
 H      4.633381      5.597080      5.963940
 H      5.882419      4.704067      5.683711
           3
 STEP:        1748
 O      5.215187      5.279675      5.243925
 H      4.633360      5.594315      5.965593
 H      5.884679      4.706140      5.683373
           3
 STEP:        1749
 O      5.214973      5.279669      5.243824
 H      4.633353      5.591541      5.967242
 H      5.886910      4.708235      5.683028
           3
 STEP:        1750
 O      5.214759      5.279663      5.243724
 H      4.633360      5.588758      5.968887
 H      5.889109      4.710353      5.682676
           3
 STEP:        1751
 O      5.214547      5.279656      5.243624
 H      4.633381      5.585967      5.970526
 H      5.891278      4.712495      5.682316
           3
 STEP:        1752
 O      5.214336      5.279648      5.243526
 H      4.633417      5.583167      5.972158
 H      5.893416      4.714659      5.681948
           3
 STEP:        1753
 O      5.214126      5.279639      5.243429
 H      4.633467      5.580359      5.973784
 H      5.895523      4.716846      5.681569
           3
 STEP:        1754
 O      5.213917      5.279629      5.243333
 H      4.633531      5.577542      5.975402
 H      5.897599      4.719057      5.681180
           3
 STEP:        1755
 O      5.213710      5.279618      5.243238
 H      4.633609      5.574717      5.977010
 H      5.899644      4.721291      5.680777
           3
 STEP:        1756
 O      5.213503      5.279606      5.243145
 H      4.633701      5.571884      5.978609
 H      5.901658      4.723550      5.680362
           3
 STEP:        1757
 O      5.213298      5.279593      5.243053
 H      4.633808      5.569041      5.980195
 H      5.903642      4.725834      5.679932
           3
 STEP:        1758
 O      5.213094      5.279579      5.242962
 H      4.633929      5.566190      5.981769
 H      5.905595      4.728143      5.679486
           3
 STEP:        1759
 O      5.212891      5.279564      5.242873
 H      4.634065      5.563330      5.983329
 H      5.907520      4.730476      5.679024
           3
 STEP:        1760
 O      5.212688      5.279548      5.242785
 H      4.634216      5.560460      5.984873
 H      5.909415      4.732835      5.678546
           3
 STEP:        1761
 O      5.212486      5.279532      5.242699
 H      4.634383      5.557581      5.986401
 H      5.911281      4.735217      5.678050
           3
 STEP:        1762
 O      5.212285      5.279514      5.242615
 H      4.634565      5.554694      5.987912
 H      5.913120      4.737624      5.677537
           3
 STEP:        1763
 O      5.212084      5.279495      5.242534
 H      4.634764      5.551798      5.989405
 H      5.914931      4.740053      5.677007
           3
 STEP:        1764
 O      5.211885      5.279476      5.242454
 H      4.634978      5.548894      5.990878
 H      5.916716      4.742503      5.676460
           3
 STEP:        1765
 O      5.211686      5.279456      5.242377
 H      4.635207      5.545984      5.992332
 H      5.918475      4.744973      5.675896
           3
 STEP:        1766
 O      5.211488      5.279435      5.242301
 H      4.635450      5.543067      5.993765
 H      5.920208      4.747462      5.675315
           3
 STEP:        1767
 O      5.211291      5.279413      5.242228
 H      4.635707      5.540143      5.995179
 H      5.921916      4.749969      5.674717
           3
 STEP:        1768
 O      5.211094      5.279390      5.242157
 H      4.635976      5.537214      5.996572
 H      5.923599      4.752492      5.674102
           3
 STEP:        1769
 O      5.210899      5.279366      5.242089
 H      4.636258      5.534279      5.997944
 H      5.925258      4.755031      5.673470
           3
 STEP:        1770
 O      5.210704      5.279341      5.242022
 H      4.636550      5.531341      5.999295
 H      5.926894      4.757585      5.672820
           3
 STEP:        1771
 O      5.210510      5.279316      5.241958
 H      4.636854      5.528399      6.000625
 H      5.928507      4.760153      5.672153
           3
 STEP:        1772
 O      5.210316      5.279289      5.241897
 H      4.637167      5.525453      6.001932
 H      5.930099      4.762735      5.671469
           3
 STEP:        1773
 O      5.210123      5.279261      5.241838
 H      4.637490      5.522506      6.003218
 H      5.931670      4.765332      5.670768
           3
 STEP:        1774
 O      5.209930      5.279233      5.241782
 H      4.637822      5.519557      6.004481
 H      5.933223      4.767941      5.670049
           3
 STEP:        1775
 O      5.209737      5.279204      5.241728
 H      4.638164      5.516607      6.005722
 H      5.934758      4.770564      5.669312
           3
 STEP:        1776
 O      5.209546      5.279173      5.241676
 H      4.638515      5.513657      6.006940
 H      5.936279      4.773199      5.668557
           3
 STEP:        1777
 O      5.209354      5.279142      5.241627
 H      4.638875      5.510707      6.008135
 H      5.937786      4.775847      5.667785
           3
 STEP:        1778
 O      5.209164      5.279111      5.241581
 H      4.639242      5.507756      6.009308
 H      5.939280      4.778505      5.666996
           3
 STEP:        1779
 O      5.208973      5.279079      5.241537
 H      4.639618      5.504806      6.010458
 H      5.940765      4.781173      5.666189
           3
 STEP:        1780
 O      5.208782      5.279046      5.241495
 H      4.640000      5.501856      6.011587
 H      5.942241      4.783849      5.665366
           3
 STEP:        1781
 O      5.208592      5.279014      5.241456
 H      4.640387      5.498906      6.012692
 H      5.943711      4.786532      5.664525
           3
 STEP:        1782
 O      5.208402      5.278981      5.241420
 H      4.640780      5.495956      6.013775
 H      5.945175      4.789221      5.663669
           3
 STEP:        1783
 O      5.208211      5.278948      5.241385
 H      4.641177      5.493006      6.014834
 H      5.946636      4.791914      5.662795
           3
 STEP:        1784
 O      5.208021      5.278914      5.241353
 H      4.641578      5.490056      6.015870
 H      5.948096      4.794610      5.661906
           3
 STEP:        1785
 O      5.207830      5.278880      5.241323
 H      4.641981      5.487107      6.016883
 H      5.949556      4.797309      5.661000
           3
 STEP:        1786
 O      5.207638      5.278846      5.241296
 H      4.642386      5.484159      6.017871
 H      5.951017      4.800010      5.660077
           3
 STEP:        1787
 O      5.207446      5.278811      5.241271
 H      4.642792      5.481211      6.018836
 H      5.952482      4.802710      5.659139
           3
 STEP:        1788
 O      5.207253      5.278776      5.241247
 H      4.643200      5.478265      6.019777
 H      5.953952      4.805410      5.658185
           3
 STEP:        1789
 O      5.207060      5.278740      5.241226
 H      4.643607      5.475321      6.020694
 H      5.955429      4.808107      5.657217
           3
 STEP:        1790
 O      5.206866      5.278705      5.241207
 H      4.644014      5.472379      6.021588
 H      5.956913      4.810802      5.656235
           3
 STEP:        1791
 O      5.206673      5.278669      5.241191
 H      4.644420      5.469442      6.022459
 H      5.958407      4.813492      5.655240
           3
 STEP:        1792
 O      5.206479      5.278633      5.241176
 H      4.644823      5.466509      6.023308
 H      5.959912      4.816178      5.654232
           3
 STEP:        1793
 O      5.206285      5.278598      5.241164
 H      4.645224      5.463583      6.024135
 H      5.961430      4.818859      5.653212
           3
 STEP:        1794
 O      5.206090      5.278561      5.241154
 H      4.645621      5.460663      6.024941
 H      5.962962      4.821534      5.652182
           3
 STEP:        1795
 O      5.205896      5.278525      5.241147
 H      4.646012      5.457750      6.025728
 H      5.964510      4.824202      5.651140
           3
 STEP:        1796
 O      5.205701      5.278488      5.241141
 H      4.646398      5.454845      6.026496
 H      5.966076      4.826864      5.650088
           3
 STEP:        1797
 O      5.205506      5.278451      5.241137
 H      4.646776      5.451947      6.027245
 H      5.967661      4.829519      5.649026
           3
 STEP:        1798
 O      5.205310      5.278414      5.241135
 H      4.647147      5.449055      6.027977
 H      5.969265      4.832165      5.647954
           3
 STEP:        1799
 O      5.205114      5.278378      5.241134
 H      4.647508      5.446170      6.028693
 H      5.970890      4.834803      5.646871
           3
 STEP:        1800
 O      5.204917      5.278341      5.241135
 H      4.647860      5.443292      6.029391
 H      5.972536      4.837432      5.645777
           3
 STEP:        1801
 O      5.204719      5.278305      5.241138
 H      4.648201      5.440421      6.030073
 H      5.974204      4.840052      5.644673
           3
 STEP:        1802
 O      5.204520      5.278268      5.241143
 H      4.648530      5.437557      6.030740
 H      5.975894      4.842663      5.643556
           3
 STEP:        1803
 O      5.204319      5.278232      5.241149
 H      4.648846      5.434700      6.031392
 H      5.977606      4.845265      5.642427
           3
 STEP:        1804
 O      5.204119      5.278195      5.241157
 H      4.649149      5.431852      6.032029
 H      5.979339      4.847857      5.641286
           3
 STEP:        1805
 O      5.203918      5.278158      5.241166
 H      4.649438      5.429013      6.032654
 H      5.981095      4.850439      5.640132
           3
 STEP:        1806
 O      5.203716      5.278121      5.241177
 H      4.649711      5.426184      6.033267
 H      5.982873      4.853012      5.638966
           3
 STEP:        1807
 O      5.203515      5.278084      5.241190
 H      4.649969      5.423364      6.033868
 H      5.984673      4.855574      5.637788
           3
 STEP:        1808
 O      5.203313      5.278046      5.241204
 H      4.650211      5.420554      6.034458
 H      5.986497      4.858126      5.636598
           3
 STEP:        1809
 O      5.203111      5.278009      5.241219
 H      4.650437      5.417753      6.035038
 H      5.988343      4.860667      5.635397
           3
 STEP:        1810
 O      5.202908      5.277971      5.241236
 H      4.650646      5.414962      6.035607
 H      5.990213      4.863199      5.634184
           3
 STEP:        1811
 O      5.202704      5.277934      5.241254
 H      4.650840      5.412179      6.036167
 H      5.992107      4.865722      5.632960
           3
 STEP:        1812
 O      5.202500      5.277897      5.241274
 H      4.651017      5.409404      6.036717
 H      5.994025      4.868237      5.631724
           3
 STEP:        1813
 O      5.202295      5.277860      5.241294
 H      4.651179      5.406638      6.037258
 H      5.995966      4.870744      5.630476
           3
 STEP:        1814
 O      5.202089      5.277823      5.241317
 H      4.651325      5.403880      6.037789
 H      5.997930      4.873244      5.629215
           3
 STEP:        1815
 O      5.201883      5.277785      5.241340
 H      4.651457      5.401129      6.038311
 H      5.999916      4.875736      5.627941
           3
 STEP:        1816
 O      5.201677      5.277747      5.241365
 H      4.651574      5.398387      6.038824
 H      6.001923      4.878222      5.626654
           3
 STEP:        1817
 O      5.201471      5.277708      5.241392
 H      4.651676      5.395652      6.039329
 H      6.003951      4.880700      5.625354
           3
 STEP:        1818
 O      5.201265      5.277669      5.241420
 H      4.651763      5.392925      6.039826
 H      6.005997      4.883170      5.624041
           3
 STEP:        1819
 O      5.201059      5.277629      5.241449
 H      4.651834      5.390204      6.040317
 H      6.008062      4.885633      5.622714
           3
 STEP:        1820
 O      5.200854      5.277589      5.241479
 H      4.651888      5.387491      6.040801
 H      6.010144      4.888089      5.621374
           3
 STEP:        1821
 O      5.200648      5.277549      5.241510
 H      4.651925      5.384784      6.041279
 H      6.012241      4.890539      5.620021
           3
 STEP:        1822
 O      5.200444      5.277508      5.241543
 H      4.651944      5.382083      6.041752
 H      6.014352      4.892983      5.618654
           3
 STEP:        1823
 O      5.200240      5.277467      5.241576
 H      4.651945      5.379390      6.042219
 H      6.016476      4.895424      5.617273
           3
 STEP:        1824
 O      5.200036      5.277425      5.241611
 H      4.651928      5.376703      6.042681
 H      6.018611      4.897863      5.615878
           3
 STEP:        1825
 O      5.199833      5.277382      5.241647
 H      4.651892      5.374023      6.043139
 H      6.020755      4.900302      5.614468
           3
 STEP:        1826
 O      5.199630      5.277340      5.241684
 H      4.651839      5.371351      6.043591
 H      6.022906      4.902742      5.613044
           3
 STEP:        1827
 O      5.199428      5.277296      5.241722
 H      4.651768      5.368686      6.044040
 H      6.025063      4.905184      5.611604
           3
 STEP:        1828
 O      5.199226      5.277253      5.241762
 H      4.651681      5.366029      6.044484
 H      6.027222      4.907628      5.610148
           3
 STEP:        1829
 O      5.199025      5.277208      5.241803
 H      4.651578      5.363380      6.044925
 H      6.029383      4.910075      5.608676
           3
 STEP:        1830
 O      5.198825      5.277163      5.241846
 H      4.651459      5.360738      6.045362
 H      6.031544      4.912524      5.607186
           3
 STEP:        1831
 O      5.198626      5.277118      5.241890
 H      4.651325      5.358104      6.045797
 H      6.033701      4.914976      5.605680
           3
 STEP:        1832
 O      5.198428      5.277071      5.241936
 H      4.651176      5.355477      6.046228
 H      6.035854      4.917432      5.604155
           3
 STEP:        1833
 O      5.198232      5.277024      5.241982
 H      4.651013      5.352856      6.046657
 H      6.038002      4.919892      5.602613
           3
 STEP:        1834
 O      5.198037      5.276976      5.242030
 H      4.650838      5.350240      6.047084
 H      6.040142      4.922358      5.601051
           3
 STEP:        1835
 O      5.197843      5.276928      5.242079
 H      4.650650      5.347630      6.047507
 H      6.042272      4.924829      5.599471
           3
 STEP:        1836
 O      5.197651      5.276878      5.242129
 H      4.650451      5.345024      6.047927
 H      6.044392      4.927307      5.597871
           3
 STEP:        1837
 O      5.197460      5.276828      5.242180
 H      4.650243      5.342421      6.048342
 H      6.046499      4.929793      5.596252
           3
 STEP:        1838
 O      5.197271      5.276777      5.242233
 H      4.650027      5.339821      6.048753
 H      6.048591      4.932286      5.594615
           3
 STEP:        1839
 O      5.197083      5.276725      5.242287
 H      4.649803      5.337222      6.049159
 H      6.050665      4.934787      5.592959
           3
 STEP:        1840
 O      5.196897      5.276672      5.242343
 H      4.649574      5.334626      6.049560
 H      6.052720      4.937298      5.591285
           3
 STEP:        1841
 O      5.196712      5.276618      5.242400
 H      4.649339      5.332031      6.049954
 H      6.054753      4.939819      5.589592
           3
 STEP:        1842
 O      5.196529      5.276563      5.242459
 H      4.649101      5.329438      6.050342
 H      6.056763      4.942351      5.587882
           3
 STEP:        1843
 O      5.196348      5.276507      5.242519
 H      4.648860      5.326847      6.050723
 H      6.058747      4.944893      5.586154
           3
 STEP:        1844
 O      5.196169      5.276450      5.242581
 H      4.648616      5.324258      6.051097
 H      6.060705      4.947447      5.584408
           3
 STEP:        1845
 O      5.195991      5.276392      5.242645
 H      4.648371      5.321672      6.051463
 H      6.062634      4.950014      5.582645
           3
 STEP:        1846
 O      5.195815      5.276333      5.242710
 H      4.648124      5.319089      6.051821
 H      6.064533      4.952593      5.580864
           3
 STEP:        1847
 O      5.195642      5.276272      5.242777
 H      4.647878      5.316508      6.052173
 H      6.066401      4.955184      5.579066
           3
 STEP:        1848
 O      5.195470      5.276211      5.242845
 H      4.647632      5.313929      6.052516
 H      6.068234      4.957788      5.577252
           3
 STEP:        1849
 O      5.195301      5.276149      5.242915
 H      4.647387      5.311351      6.052852
 H      6.070032      4.960404      5.575423
           3
 STEP:        1850
 O      5.195134      5.276086      5.242987
 H      4.647145      5.308774      6.053180
 H      6.071792      4.963032      5.573577
           3
 STEP:        1851
 O      5.194969      5.276021      5.243060
 H      4.646905      5.306198      6.053500
 H      6.073514      4.965673      5.571717
           3
 STEP:        1852
 O      5.194806      5.275956      5.243135
 H      4.646670      5.303622      6.053812
 H      6.075196      4.968326      5.569841
           3
 STEP:        1853
 O      5.194645      5.275890      5.243211
 H      4.646439      5.301045      6.054114
 H      6.076838      4.970993      5.567951
           3
 STEP:        1854
 O      5.194486      5.275823      5.243288
 H      4.646214      5.298466      6.054407
 H      6.078441      4.973673      5.566047
           3
 STEP:        1855
 O      5.194328      5.275755      5.243366
 H      4.645995      5.295886      6.054690
 H      6.080003      4.976367      5.564128
           3
 STEP:        1856
 O      5.194172      5.275686      5.243445
 H      4.645785      5.293305      6.054964
 H      6.081525      4.979077      5.562195
           3
 STEP:        1857
 O      5.194019      5.275616      5.243526
 H      4.645583      5.290721      6.055227
 H      6.083006      4.981801      5.560249
           3
 STEP:        1858
 O      5.193867      5.275545      5.243607
 H      4.645391      5.288136      6.055480
 H      6.084447      4.984540      5.558289
           3
 STEP:        1859
 O      5.193718      5.275474      5.243689
 H      4.645210      5.285549      6.055723
 H      6.085846      4.987294      5.556316
           3
 STEP:        1860
 O      5.193571      5.275402      5.243773
 H      4.645041      5.282962      6.055956
 H      6.087202      4.990061      5.554332
           3
 STEP:        1861
 O      5.193425      5.275330      5.243857
 H      4.644884      5.280373      6.056180
 H      6.088516      4.992841      5.552336
           3
 STEP:        1862
 O      5.193282      5.275256      5.243943
 H      4.644742      5.277783      6.056392
 H      6.089787      4.995633      5.550331
           3
 STEP:        1863
 O      5.193140      5.275182      5.244029
 H      4.644615      5.275191      6.056595
 H      6.091014      4.998437      5.548316
           3
 STEP:        1864
 O      5.192999      5.275107      5.244117
 H      4.644505      5.272599      6.056786
 H      6.092198      5.001253      5.546295
           3
 STEP:        1865
 O      5.192860      5.275030      5.244206
 H      4.644412      5.270004      6.056967
 H      6.093339      5.004078      5.544267
           3
 STEP:        1866
 O      5.192722      5.274952      5.244297
 H      4.644339      5.267407      6.057135
 H      6.094437      5.006914      5.542236
           3
 STEP:        1867
 O      5.192586      5.274874      5.244389
 H      4.644285      5.264807      6.057292
 H      6.095492      5.009759      5.540201
           3
 STEP:        1868
 O      5.192451      5.274794      5.244482
 H      4.644251      5.262204      6.057437
 H      6.096507      5.012614      5.538164
           3
 STEP:        1869
 O      5.192317      5.274714      5.244576
 H      4.644238      5.259597      6.057570
 H      6.097481      5.015478      5.536126
           3
 STEP:        1870
 O      5.192183      5.274634      5.244670
 H      4.644245      5.256987      6.057690
 H      6.098415      5.018351      5.534088
           3
 STEP:        1871
 O      5.192051      5.274553      5.244765
 H      4.644273      5.254374      6.057798
 H      6.099310      5.021232      5.532051
           3
 STEP:        1872
 O      5.191920      5.274471      5.244861
 H      4.644322      5.251758      6.057895
 H      6.100168      5.024123      5.530015
           3
 STEP:        1873
 O      5.191789      5.274390      5.244957
 H      4.644392      5.249138      6.057980
 H      6.100990      5.027021      5.527980
           3
 STEP:        1874
 O      5.191660      5.274307      5.245052
 H      4.644482      5.246515      6.058055
 H      6.101776      5.029927      5.525949
           3
 STEP:        1875
 O      5.191531      5.274225      5.245148
 H      4.644594      5.243889      6.058119
 H      6.102529      5.032840      5.523920
           3
 STEP:        1876
 O      5.191403      5.274142      5.245244
 H      4.644729      5.241259      6.058173
 H      6.103249      5.035760      5.521896
           3
 STEP:        1877
 O      5.191276      5.274060      5.245340
 H      4.644886      5.238627      6.058217
 H      6.103937      5.038686      5.519878
           3
 STEP:        1878
 O      5.191149      5.273977      5.245436
 H      4.645067      5.235990      6.058253
 H      6.104596      5.041616      5.517865
           3
 STEP:        1879
 O      5.191023      5.273893      5.245532
 H      4.645273      5.233351      6.058280
 H      6.105226      5.044551      5.515861
           3
 STEP:        1880
 O      5.190896      5.273810      5.245628
 H      4.645504      5.230708      6.058300
 H      6.105829      5.047489      5.513866
           3
 STEP:        1881
 O      5.190770      5.273726      5.245725
 H      4.645760      5.228061      6.058313
 H      6.106409      5.050430      5.511882
           3
 STEP:        1882
 O      5.190643      5.273642      5.245821
 H      4.646042      5.225412      6.058321
 H      6.106965      5.053372      5.509909
           3
 STEP:        1883
 O      5.190516      5.273559      5.245917
 H      4.646349      5.222759      6.058323
 H      6.107502      5.056316      5.507948
           3
 STEP:        1884
 O      5.190388      5.273475      5.246012
 H      4.646684      5.220104      6.058321
 H      6.108018      5.059261      5.506000
           3
 STEP:        1885
 O      5.190260      5.273392      5.246106
 H      4.647044      5.217445      6.058315
 H      6.108518      5.062205      5.504067
           3
 STEP:        1886
 O      5.190132      5.273309      5.246199
 H      4.647431      5.214784      6.058305
 H      6.109001      5.065150      5.502149
           3
 STEP:        1887
 O      5.190003      5.273226      5.246291
 H      4.647845      5.212119      6.058292
 H      6.109469      5.068095      5.500248
           3
 STEP:        1888
 O      5.189873      5.273143      5.246383
 H      4.648285      5.209451      6.058275
 H      6.109923      5.071039      5.498365
           3
 STEP:        1889
 O      5.189742      5.273060      5.246473
 H      4.648752      5.206779      6.058256
 H      6.110365      5.073980      5.496501
           3
 STEP:        1890
 O      5.189610      5.272977      5.246563
 H      4.649245      5.204104      6.058235
 H      6.110798      5.076920      5.494655
           3
 STEP:        1891
 O      5.189477      5.272894      5.246650
 H      4.649765      5.201425      6.058212
 H      6.111222      5.079857      5.492830
           3
 STEP:        1892
 O      5.189343      5.272811      5.246737
 H      4.650310      5.198742      6.058189
 H      6.111640      5.082791      5.491025
           3
 STEP:        1893
 O      5.189207      5.272729      5.246822
 H      4.650881      5.196054      6.058166
 H      6.112054      5.085722      5.489241
           3
 STEP:        1894
 O      5.189070      5.272646      5.246905
 H      4.651476      5.193362      6.058146
 H      6.112466      5.088650      5.487478
           3
 STEP:        1895
 O      5.188931      5.272564      5.246986
 H      4.652096      5.190666      6.058128
 H      6.112878      5.091575      5.485736
           3
 STEP:        1896
 O      5.188790      5.272482      5.247066
 H      4.652741      5.187965      6.058114
 H      6.113293      5.094497      5.484016
           3
 STEP:        1897
 O      5.188648      5.272401      5.247143
 H      4.653409      5.185259      6.058104
 H      6.113710      5.097414      5.482320
           3
 STEP:        1898
 O      5.188504      5.272321      5.247218
 H      4.654101      5.182548      6.058099
 H      6.114132      5.100327      5.480649
           3
 STEP:        1899
 O      5.188358      5.272241      5.247292
 H      4.654816      5.179833      6.058100
 H      6.114559      5.103233      5.479004
           3
 STEP:        1900
 O      5.188210      5.272161      5.247363
 H      4.655554      5.177112      6.058107
 H      6.114993      5.106133      5.477389
           3
 STEP:        1901
 O      5.188060      5.272082      5.247432
 H      4.656315      5.174385      6.058121
 H      6.115435      5.109024      5.475803
           3
 STEP:        1902
 O      5.187908      5.272003      5.247498
 H      4.657097      5.171653      6.058144
 H      6.115887      5.111908      5.474249
           3
 STEP:        1903
 O      5.187753      5.271925      5.247562
 H      4.657902      5.168915      6.058176
 H      6.116350      5.114782      5.472726
           3
 STEP:        1904
 O      5.187597      5.271848      5.247623
 H      4.658730      5.166172      6.058219
 H      6.116825      5.117648      5.471234
           3
 STEP:        1905
 O      5.187438      5.271770      5.247682
 H      4.659582      5.163423      6.058274
 H      6.117315      5.120506      5.469773
           3
 STEP:        1906
 O      5.187278      5.271694      5.247739
 H      4.660456      5.160670      6.058343
 H      6.117819      5.123355      5.468341
           3
 STEP:        1907
 O      5.187115      5.271618      5.247793
 H      4.661354      5.157913      6.058426
 H      6.118339      5.126197      5.466938
           3
 STEP:        1908
 O      5.186951      5.271543      5.247845
 H      4.662275      5.155151      6.058523
 H      6.118873      5.129031      5.465563
           3
 STEP:        1909
 O      5.186784      5.271468      5.247894
 H      4.663219      5.152384      6.058636
 H      6.119422      5.131857      5.464218
           3
 STEP:        1910
 O      5.186617      5.271395      5.247940
 H      4.664184      5.149612      6.058765
 H      6.119985      5.134675      5.462901
           3
 STEP:        1911
 O      5.186447      5.271322      5.247983
 H      4.665170      5.146835      6.058910
 H      6.120561      5.137487      5.461614
           3
 STEP:        1912
 O      5.186275      5.271250      5.248023
 H      4.666177      5.144052      6.059072
 H      6.121149      5.140290      5.460355
           3
 STEP:        1913
 O      5.186100      5.271178      5.248059
 H      4.667204      5.141263      6.059251
 H      6.121749      5.143086      5.459126
           3
 STEP:        1914
 O      5.185924      5.271107      5.248093
 H      4.668251      5.138467      6.059448
 H      6.122360      5.145875      5.457926
           3
 STEP:        1915
 O      5.185745      5.271036      5.248123
 H      4.669318      5.135666      6.059664
 H      6.122982      5.148656      5.456755
           3
 STEP:        1916
 O      5.185564      5.270966      5.248150
 H      4.670406      5.132858      6.059898
 H      6.123615      5.151431      5.455613
           3
 STEP:        1917
 O      5.185380      5.270896      5.248173
 H      4.671514      5.130045      6.060151
 H      6.124258      5.154198      5.454499
           3
 STEP:        1918
 O      5.185195      5.270827      5.248194
 H      4.672643      5.127226      6.060423
 H      6.124909      5.156958      5.453416
           3
 STEP:        1919
 O      5.185008      5.270759      5.248212
 H      4.673792      5.124401      6.060716
 H      6.125570      5.159710      5.452362
           3
 STEP:        1920
 O      5.184819      5.270691      5.248227
 H      4.674961      5.121570      6.061029
 H      6.126238      5.162454      5.451339
           3
 STEP:        1921
 O      5.184628      5.270625      5.248239
 H      4.676149      5.118735      6.061362
 H      6.126914      5.165190      5.450346
           3
 STEP:        1922
 O      5.184435      5.270559      5.248249
 H      4.677357      5.115894      6.061715
 H      6.127596      5.167919      5.449383
           3
 STEP:        1923
 O      5.184241      5.270494      5.248255
 H      4.678584      5.113048      6.062089
 H      6.128285      5.170641      5.448450
           3
 STEP:        1924
 O      5.184045      5.270429      5.248258
 H      4.679831      5.110197      6.062483
 H      6.128980      5.173356      5.447546
           3
 STEP:        1925
 O      5.183848      5.270364      5.248258
 H      4.681097      5.107342      6.062898
 H      6.129680      5.176063      5.446671
           3
 STEP:        1926
 O      5.183650      5.270300      5.248254
 H      4.682382      5.104482      6.063332
 H      6.130383      5.178764      5.445824
           3
 STEP:        1927
 O      5.183450      5.270237      5.248247
 H      4.683688      5.101617      6.063785
 H      6.131088      5.181459      5.445005
           3
 STEP:        1928
 O      5.183250      5.270174      5.248238
 H      4.685013      5.098747      6.064258
 H      6.131794      5.184147      5.444214
           3
 STEP:        1929
 O      5.183049      5.270111      5.248225
 H      4.686358      5.095871      6.064748
 H      6.132497      5.186829      5.443449
           3
 STEP:        1930
 O      5.182847      5.270050      5.248210
 H      4.687724      5.092990      6.065256
 H      6.133196      5.189506      5.442712
           3
 STEP:        1931
 O      5.182645      5.269989      5.248192
 H      4.689110      5.090102      6.065780
 H      6.133888      5.192177      5.441999
           3
 STEP:        1932
 O      5.182441      5.269929      5.248171
 H      4.690516      5.087209      6.066321
 H      6.134570      5.194843      5.441311
           3
 STEP:        1933
 O      5.182238      5.269869      5.248147
 H      4.691944      5.084309      6.066877
 H      6.135241      5.197505      5.440648
           3
 STEP:        1934
 O      5.182033      5.269809      5.248121
 H      4.693393      5.081403      6.067449
 H      6.135898      5.200161      5.440007
           3
 STEP:        1935
 O      5.181828      5.269749      5.248091
 H      4.694865      5.078492      6.068036
 H      6.136540      5.202813      5.439389
           3
 STEP:        1936
 O      5.181622      5.269690      5.248060
 H      4.696359      5.075576      6.068638
 H      6.137166      5.205461      5.438794
           3
 STEP:        1937
 O      5.181416      5.269632      5.248026
 H      4.697876      5.072657      6.069254
 H      6.137772      5.208104      5.438220
           3
 STEP:        1938
 O      5.181208      5.269574      5.247991
 H      4.699415      5.069735      6.069884
 H      6.138359      5.210743      5.437669
           3
 STEP:        1939
 O      5.181001      5.269516      5.247954
 H      4.700978      5.066810      6.070526
 H      6.138923      5.213376      5.437138
           3
 STEP:        1940
 O      5.180793      5.269459      5.247916
 H      4.702563      5.063884      6.071181
 H      6.139464      5.216006      5.436628
           3
 STEP:        1941
 O      5.180585      5.269401      5.247876
 H      4.704171      5.060956      6.071846
 H      6.139980      5.218630      5.436138
           3
 STEP:        1942
 O      5.180377      5.269345      5.247834
 H      4.705803      5.058026      6.072521
 H      6.140470      5.221248      5.435667
           3
 STEP:        1943
 O      5.180169      5.269288      5.247790
 H      4.707457      5.055095      6.073205
 H      6.140934      5.223861      5.435214
           3
 STEP:        1944
 O      5.179962      5.269232      5.247744
 H      4.709136      5.052164      6.073895
 H      6.141369      5.226469      5.434779
           3
 STEP:        1945
 O      5.179756      5.269176      5.247697
 H      4.710837      5.049231      6.074592
 H      6.141776      5.229070      5.434362
           3
 STEP:        1946
 O      5.179549      5.269120      5.247648
 H      4.712563      5.046298      6.075293
 H      6.142152      5.231666      5.433963
           3
 STEP:        1947
 O      5.179343      5.269064      5.247598
 H      4.714313      5.043365      6.075997
 H      6.142496      5.234256      5.433581
           3
 STEP:        1948
 O      5.179137      5.269008      5.247547
 H      4.716086      5.040433      6.076702
 H      6.142808      5.236841      5.433215
           3
 STEP:        1949
 O      5.178932      5.268953      5.247494
 H      4.717885      5.037501      6.077409
 H      6.143085      5.239420      5.432865
           3
 STEP:        1950
 O      5.178728      5.268897      5.247440
 H      4.719708      5.034570      6.078115
 H      6.143328      5.241994      5.432530
           3
 STEP:        1951
 O      5.178525      5.268842      5.247385
 H      4.721558      5.031639      6.078819
 H      6.143534      5.244562      5.432209
           3
 STEP:        1952
 O      5.178323      5.268786      5.247329
 H      4.723433      5.028710      6.079521
 H      6.143703      5.247124      5.431899
           3
 STEP:        1953
 O      5.178121      5.268731      5.247273
 H      4.725334      5.025782      6.080218
 H      6.143836      5.249682      5.431600
           3
 STEP:        1954
 O      5.177920      5.268675      5.247216
 H      4.727262      5.022855      6.080911
 H      6.143931      5.252235      5.431312
           3
 STEP:        1955
 O      5.177719      5.268620      5.247159
 H      4.729216      5.019931      6.081598
 H      6.143990      5.254784      5.431034
           3
 STEP:        1956
 O      5.177519      5.268564      5.247102
 H      4.731197      5.017008      6.082277
 H      6.144011      5.257329      5.430767
           3
 STEP:        1957
 O      5.177319      5.268508      5.247045
 H      4.733204      5.014088      6.082948
 H      6.143995      5.259871      5.430510
           3
 STEP:        1958
 O      5.177120      5.268452      5.246987
 H      4.735237      5.011172      6.083609
 H      6.143942      5.262409      5.430265
           3
 STEP:        1959
 O      5.176921      5.268396      5.246930
 H      4.737296      5.008258      6.084259
 H      6.143851      5.264944      5.430031
           3
 STEP:        1960
 O      5.176723      5.268340      5.246873
 H      4.739380      5.005349      6.084897
 H      6.143724      5.267474      5.429809
           3
 STEP:        1961
 O      5.176525      5.268284      5.246817
 H      4.741489      5.002446      6.085520
 H      6.143559      5.270000      5.429597
           3
 STEP:        1962
 O      5.176328      5.268227      5.246761
 H      4.743622      4.999547      6.086127
 H      6.143358      5.272521      5.429395
           3
 STEP:        1963
 O      5.176132      5.268171      5.246705
 H      4.745780      4.996656      6.086718
 H      6.143120      5.275037      5.429201
           3
 STEP:        1964
 O      5.175937      5.268113      5.246651
 H      4.747962      4.993772      6.087290
 H      6.142845      5.277546      5.429016
           3
 STEP:        1965
 O      5.175743      5.268056      5.246596
 H      4.750168      4.990895      6.087843
 H      6.142534      5.280051      5.428837
           3
 STEP:        1966
 O      5.175549      5.267997      5.246543
 H      4.752400      4.988025      6.088375
 H      6.142187      5.282549      5.428663
           3
 STEP:        1967
 O      5.175356      5.267939      5.246490
 H      4.754655      4.985164      6.088886
 H      6.141805      5.285043      5.428495
           3
 STEP:        1968
 O      5.175164      5.267880      5.246438
 H      4.756936      4.982311      6.089375
 H      6.141389      5.287532      5.428331
           3
 STEP:        1969
 O      5.174971      5.267821      5.246387
 H      4.759240      4.979467      6.089842
 H      6.140940      5.290018      5.428171
           3
 STEP:        1970
 O      5.174779      5.267761      5.246336
 H      4.761569      4.976632      6.090284
 H      6.140459      5.292501      5.428015
           3
 STEP:        1971
 O      5.174587      5.267701      5.246286
 H      4.763920      4.973806      6.090703
 H      6.139946      5.294982      5.427863
           3
 STEP:        1972
 O      5.174396      5.267641      5.246237
 H      4.766295      4.970990      6.091098
 H      6.139404      5.297460      5.427713
           3
 STEP:        1973
 O      5.174204      5.267581      5.246190
 H      4.768690      4.968184      6.091470
 H      6.138833      5.299936      5.427566
           3
 STEP:        1974
 O      5.174013      5.267520      5.246143
 H      4.771107      4.965387      6.091817
 H      6.138237      5.302410      5.427420
           3
 STEP:        1975
 O      5.173821      5.267459      5.246098
 H      4.773545      4.962602      6.092140
 H      6.137616      5.304882      5.427277
           3
 STEP:        1976
 O      5.173630      5.267397      5.246055
 H      4.776002      4.959826      6.092438
 H      6.136972      5.307351      5.427135
           3
 STEP:        1977
 O      5.173439      5.267334      5.246014
 H      4.778478      4.957061      6.092712
 H      6.136307      5.309818      5.426994
           3
 STEP:        1978
 O      5.173249      5.267271      5.245976
 H      4.780973      4.954306      6.092960
 H      6.135623      5.312283      5.426855
           3
 STEP:        1979
 O      5.173058      5.267207      5.245939
 H      4.783485      4.951561      6.093184
 H      6.134921      5.314746      5.426716
           3
 STEP:        1980
 O      5.172868      5.267142      5.245904
 H      4.786013      4.948826      6.093382
 H      6.134203      5.317206      5.426578
           3
 STEP:        1981
 O      5.172677      5.267076      5.245870
 H      4.788556      4.946100      6.093554
 H      6.133473      5.319663      5.426439
           3
 STEP:        1982
 O      5.172487      5.267009      5.245838
 H      4.791113      4.943384      6.093700
 H      6.132731      5.322118      5.426300
           3
 STEP:        1983
 O      5.172297      5.266941      5.245807
 H      4.793682      4.940678      6.093820
 H      6.131979      5.324571      5.426160
           3
 STEP:        1984
 O      5.172107      5.266872      5.245778
 H      4.796262      4.937982      6.093914
 H      6.131221      5.327021      5.426018
           3
 STEP:        1985
 O      5.171917      5.266803      5.245750
 H      4.798852      4.935296      6.093981
 H      6.130456      5.329470      5.425876
           3
 STEP:        1986
 O      5.171726      5.266732      5.245724
 H      4.801451      4.932620      6.094021
 H      6.129688      5.331918      5.425732
           3
 STEP:        1987
 O      5.171534      5.266662      5.245699
 H      4.804058      4.929954      6.094035
 H      6.128918      5.334366      5.425586
           3
 STEP:        1988
 O      5.171341      5.266590      5.245675
 H      4.806673      4.927298      6.094023
 H      6.128148      5.336814      5.425438
           3
 STEP:        1989
 O      5.171148      5.266518      5.245654
 H      4.809293      4.924652      6.093985
 H      6.127379      5.339263      5.425288
           3
 STEP:        1990
 O      5.170955      5.266445      5.245633
 H      4.811920      4.922015      6.093921
 H      6.126615      5.341713      5.425134
           3
 STEP:        1991
 O      5.170760      5.266372      5.245615
 H      4.814552      4.919387      6.093832
 H      6.125856      5.344166      5.424976
           3
 STEP:        1992
 O      5.170565      5.266298      5.245598
 H      4.817188      4.916768      6.093718
 H      6.125103      5.346622      5.424813
           3
 STEP:        1993
 O      5.170370      5.266223      5.245582
 H      4.819828      4.914158      6.093582
 H      6.124359      5.349080      5.424646
           3
 STEP:        1994
 O      5.170173      5.266148      5.245569
 H      4.822470      4.911556      6.093422
 H      6.123625      5.351543      5.424474
           3
 STEP:        1995
 O      5.169976      5.266072      5.245558
 H      4.825114      4.908962      6.093241
 H      6.122902      5.354009      5.424297
           3
 STEP:        1996
 O      5.169779      5.265995      5.245549
 H      4.827758      4.906376      6.093039
 H      6.122191      5.356481      5.424115
           3
 STEP:        1997
 O      5.169580      5.265917      5.245542
 H      4.830401      4.903798      6.092817
 H      6.121495      5.358957      5.423927
           3
 STEP:        1998
 O      5.169382      5.265838      5.245537
 H      4.833042      4.901226      6.092574
 H      6.120813      5.361438      5.423733
           3
 STEP:        1999
 O      5.169182      5.265759      5.245534
 H      4.835680      4.898662      6.092312
 H      6.120148      5.363926      5.423532
           3
 STEP:        2000
 O      5.168982      5.265678      5.245532
 H      4.838315      4.896103      6.092031
 H      6.119500      5.366419      5.423324
