           2
 STEP:           1
 H      0.371145      0.000511      0.000554
 H     -0.371145     -0.000511     -0.000554
           2
 STEP:           2
 H      0.371368      0.001019      0.001104
 H     -0.371368     -0.001019     -0.001104
           2
 STEP:           3
 H      0.371667      0.001522      0.001650
 H     -0.371667     -0.001522     -0.001650
           2
 STEP:           4
 H      0.372037      0.002022      0.002191
 H     -0.372037     -0.002022     -0.002191
           2
 STEP:           5
 H      0.372475      0.002520      0.002730
 H     -0.372475     -0.002520     -0.002730
           2
 STEP:           6
 H      0.372975      0.003016      0.003269
 H     -0.372975     -0.003016     -0.003269
           2
 STEP:           7
 H      0.373535      0.003514      0.003808
 H     -0.373535     -0.003514     -0.003808
           2
 STEP:           8
 H      0.374152      0.004012      0.004347
 H     -0.374152     -0.004012     -0.004347
           2
 STEP:           9
 H      0.374822      0.004512      0.004889
 H     -0.374822     -0.004512     -0.004889
           2
 STEP:          10
 H      0.375542      0.005013      0.005432
 H     -0.375542     -0.005013     -0.005432
           2
 STEP:          11
 H      0.376308      0.005516      0.005977
 H     -0.376308     -0.005516     -0.005977
           2
 STEP:          12
 H      0.377116      0.006020      0.006523
 H     -0.377116     -0.006020     -0.006523
           2
 STEP:          13
 H      0.377963      0.006525      0.007071
 H     -0.377963     -0.006525     -0.007071
           2
 STEP:          14
 H      0.378842      0.007031      0.007619
 H     -0.378842     -0.007031     -0.007619
           2
 STEP:          15
 H      0.379751      0.007539      0.008169
 H     -0.379751     -0.007539     -0.008169
           2
 STEP:          16
 H      0.380684      0.008046      0.008720
 H     -0.380684     -0.008046     -0.008720
           2
 STEP:          17
 H      0.381636      0.008555      0.009270
 H     -0.381636     -0.008555     -0.009270
           2
 STEP:          18
 H      0.382601      0.009064      0.009822
 H     -0.382601     -0.009064     -0.009822
           2
 STEP:          19
 H      0.383576      0.009573      0.010373
 H     -0.383576     -0.009573     -0.010373
           2
 STEP:          20
 H      0.384553      0.010082      0.010925
 H     -0.384553     -0.010082     -0.010925
           2
 STEP:          21
 H      0.385529      0.010590      0.011476
 H     -0.385529     -0.010590     -0.011476
           2
 STEP:          22
 H      0.386498      0.011099      0.012027
 H     -0.386498     -0.011099     -0.012027
           2
 STEP:          23
 H      0.387455      0.011607      0.012578
 H     -0.387455     -0.011607     -0.012578
           2
 STEP:          24
 H      0.388395      0.012115      0.013128
 H     -0.388395     -0.012115     -0.013128
           2
 STEP:          25
 H      0.389314      0.012621      0.013677
 H     -0.389314     -0.012621     -0.013677
           2
 STEP:          26
 H      0.390206      0.013127      0.014225
 H     -0.390206     -0.013127     -0.014225
           2
 STEP:          27
 H      0.391066      0.013632      0.014772
 H     -0.391066     -0.013632     -0.014772
           2
 STEP:          28
 H      0.391892      0.014135      0.015318
 H     -0.391892     -0.014135     -0.015318
           2
 STEP:          29
 H      0.392678      0.014637      0.015861
 H     -0.392678     -0.014637     -0.015861
           2
 STEP:          30
 H      0.393421      0.015137      0.016403
 H     -0.393421     -0.015137     -0.016403
           2
 STEP:          31
 H      0.394116      0.015635      0.016943
 H     -0.394116     -0.015635     -0.016943
           2
 STEP:          32
 H      0.394761      0.016132      0.017481
 H     -0.394761     -0.016132     -0.017481
           2
 STEP:          33
 H      0.395353      0.016626      0.018016
 H     -0.395353     -0.016626     -0.018016
           2
 STEP:          34
 H      0.395888      0.017117      0.018549
 H     -0.395888     -0.017117     -0.018549
           2
 STEP:          35
 H      0.396364      0.017606      0.019079
 H     -0.396364     -0.017606     -0.019079
           2
 STEP:          36
 H      0.396778      0.018093      0.019606
 H     -0.396778     -0.018093     -0.019606
           2
 STEP:          37
 H      0.397129      0.018576      0.020130
 H     -0.397129     -0.018576     -0.020130
           2
 STEP:          38
 H      0.397414      0.019057      0.020651
 H     -0.397414     -0.019057     -0.020651
           2
 STEP:          39
 H      0.397633      0.019534      0.021168
 H     -0.397633     -0.019534     -0.021168
           2
 STEP:          40
 H      0.397783      0.020008      0.021682
 H     -0.397783     -0.020008     -0.021682
           2
 STEP:          41
 H      0.397865      0.020479      0.022192
 H     -0.397865     -0.020479     -0.022192
           2
 STEP:          42
 H      0.397877      0.020946      0.022698
 H     -0.397877     -0.020946     -0.022698
           2
 STEP:          43
 H      0.397819      0.021409      0.023200
 H     -0.397819     -0.021409     -0.023200
           2
 STEP:          44
 H      0.397692      0.021869      0.023699
 H     -0.397692     -0.021869     -0.023699
           2
 STEP:          45
 H      0.397495      0.022325      0.024193
 H     -0.397495     -0.022325     -0.024193
           2
 STEP:          46
 H      0.397230      0.022778      0.024683
 H     -0.397230     -0.022778     -0.024683
           2
 STEP:          47
 H      0.396896      0.023226      0.025169
 H     -0.396896     -0.023226     -0.025169
           2
 STEP:          48
 H      0.396497      0.023671      0.025651
 H     -0.396497     -0.023671     -0.025651
           2
 STEP:          49
 H      0.396032      0.024112      0.026129
 H     -0.396032     -0.024112     -0.026129
           2
 STEP:          50
 H      0.395504      0.024549      0.026603
 H     -0.395504     -0.024549     -0.026603
           2
 STEP:          51
 H      0.394914      0.024983      0.027072
 H     -0.394914     -0.024983     -0.027072
           2
 STEP:          52
 H      0.394266      0.025412      0.027538
 H     -0.394266     -0.025412     -0.027538
           2
 STEP:          53
 H      0.393562      0.025839      0.028000
 H     -0.393562     -0.025839     -0.028000
           2
 STEP:          54
 H      0.392805      0.026262      0.028458
 H     -0.392805     -0.026262     -0.028458
           2
 STEP:          55
 H      0.391998      0.026681      0.028913
 H     -0.391998     -0.026681     -0.028913
           2
 STEP:          56
 H      0.391144      0.027098      0.029364
 H     -0.391144     -0.027098     -0.029364
           2
 STEP:          57
 H      0.390247      0.027511      0.029812
 H     -0.390247     -0.027511     -0.029812
           2
 STEP:          58
 H      0.389311      0.027922      0.030258
 H     -0.389311     -0.027922     -0.030258
           2
 STEP:          59
 H      0.388340      0.028330      0.030700
 H     -0.388340     -0.028330     -0.030700
           2
 STEP:          60
 H      0.387339      0.028737      0.031140
 H     -0.387339     -0.028737     -0.031140
           2
 STEP:          61
 H      0.386312      0.029141      0.031579
 H     -0.386312     -0.029141     -0.031579
           2
 STEP:          62
 H      0.385263      0.029544      0.032015
 H     -0.385263     -0.029544     -0.032015
           2
 STEP:          63
 H      0.384197      0.029945      0.032450
 H     -0.384197     -0.029945     -0.032450
           2
 STEP:          64
 H      0.383120      0.030346      0.032884
 H     -0.383120     -0.030346     -0.032884
           2
 STEP:          65
 H      0.382036      0.030746      0.033318
 H     -0.382036     -0.030746     -0.033318
           2
 STEP:          66
 H      0.380950      0.031146      0.033752
 H     -0.380950     -0.031146     -0.033752
           2
 STEP:          67
 H      0.379869      0.031547      0.034186
 H     -0.379869     -0.031547     -0.034186
           2
 STEP:          68
 H      0.378796      0.031948      0.034621
 H     -0.378796     -0.031948     -0.034621
           2
 STEP:          69
 H      0.377737      0.032350      0.035057
 H     -0.377737     -0.032350     -0.035057
           2
 STEP:          70
 H      0.376697      0.032755      0.035495
 H     -0.376697     -0.032755     -0.035495
           2
 STEP:          71
 H      0.375682      0.033161      0.035935
 H     -0.375682     -0.033161     -0.035935
           2
 STEP:          72
 H      0.374695      0.033570      0.036379
 H     -0.374695     -0.033570     -0.036379
           2
 STEP:          73
 H      0.373743      0.033982      0.036825
 H     -0.373743     -0.033982     -0.036825
           2
 STEP:          74
 H      0.372830      0.034398      0.037276
 H     -0.372830     -0.034398     -0.037276
           2
 STEP:          75
 H      0.371960      0.034818      0.037731
 H     -0.371960     -0.034818     -0.037731
           2
 STEP:          76
 H      0.371137      0.035242      0.038191
 H     -0.371137     -0.035242     -0.038191
           2
 STEP:          77
 H      0.370367      0.035672      0.038657
 H     -0.370367     -0.035672     -0.038657
           2
 STEP:          78
 H      0.369653      0.036107      0.039129
 H     -0.369653     -0.036107     -0.039129
           2
 STEP:          79
 H      0.368998      0.036549      0.039607
 H     -0.368998     -0.036549     -0.039607
           2
 STEP:          80
 H      0.368408      0.036996      0.040092
 H     -0.368408     -0.036996     -0.040092
           2
 STEP:          81
 H      0.367884      0.037451      0.040584
 H     -0.367884     -0.037451     -0.040584
           2
 STEP:          82
 H      0.367430      0.037912      0.041084
 H     -0.367430     -0.037912     -0.041084
           2
 STEP:          83
 H      0.367048      0.038380      0.041592
 H     -0.367048     -0.038380     -0.041592
           2
 STEP:          84
 H      0.366739      0.038856      0.042108
 H     -0.366739     -0.038856     -0.042108
           2
 STEP:          85
 H      0.366504      0.039340      0.042632
 H     -0.366504     -0.039340     -0.042632
           2
 STEP:          86
 H      0.366344      0.039832      0.043165
 H     -0.366344     -0.039832     -0.043165
           2
 STEP:          87
 H      0.366259      0.040332      0.043707
 H     -0.366259     -0.040332     -0.043707
           2
 STEP:          88
 H      0.366249      0.040840      0.044258
 H     -0.366249     -0.040840     -0.044258
           2
 STEP:          89
 H      0.366312      0.041356      0.044818
 H     -0.366312     -0.041356     -0.044818
           2
 STEP:          90
 H      0.366447      0.041881      0.045386
 H     -0.366447     -0.041881     -0.045386
           2
 STEP:          91
 H      0.366653      0.042414      0.045964
 H     -0.366653     -0.042414     -0.045964
           2
 STEP:          92
 H      0.366926      0.042955      0.046550
 H     -0.366926     -0.042955     -0.046550
           2
 STEP:          93
 H      0.367266      0.043504      0.047145
 H     -0.367266     -0.043504     -0.047145
           2
 STEP:          94
 H      0.367668      0.044060      0.047749
 H     -0.367668     -0.044060     -0.047749
           2
 STEP:          95
 H      0.368131      0.044624      0.048360
 H     -0.368131     -0.044624     -0.048360
           2
 STEP:          96
 H      0.368649      0.045195      0.048978
 H     -0.368649     -0.045195     -0.048978
           2
 STEP:          97
 H      0.369221      0.045772      0.049604
 H     -0.369221     -0.045772     -0.049604
           2
 STEP:          98
 H      0.369841      0.046356      0.050236
 H     -0.369841     -0.046356     -0.050236
           2
 STEP:          99
 H      0.370505      0.046945      0.050875
 H     -0.370505     -0.046945     -0.050875
           2
 STEP:         100
 H      0.371210      0.047539      0.051519
 H     -0.371210     -0.047539     -0.051519
           2
 STEP:         101
 H      0.371949      0.048137      0.052167
 H     -0.371949     -0.048137     -0.052167
           2
 STEP:         102
 H      0.372719      0.048739      0.052820
 H     -0.372719     -0.048739     -0.052820
           2
 STEP:         103
 H      0.373514      0.049344      0.053476
 H     -0.373514     -0.049344     -0.053476
           2
 STEP:         104
 H      0.374330      0.049952      0.054134
 H     -0.374330     -0.049952     -0.054134
           2
 STEP:         105
 H      0.375160      0.050561      0.054795
 H     -0.375160     -0.050561     -0.054795
           2
 STEP:         106
 H      0.376001      0.051172      0.055457
 H     -0.376001     -0.051172     -0.055457
           2
 STEP:         107
 H      0.376846      0.051783      0.056120
 H     -0.376846     -0.051783     -0.056120
           2
 STEP:         108
 H      0.377692      0.052395      0.056783
 H     -0.377692     -0.052395     -0.056783
           2
 STEP:         109
 H      0.378533      0.053007      0.057446
 H     -0.378533     -0.053007     -0.057446
           2
 STEP:         110
 H      0.379364      0.053617      0.058108
 H     -0.379364     -0.053617     -0.058108
           2
 STEP:         111
 H      0.380180      0.054226      0.058767
 H     -0.380180     -0.054226     -0.058767
           2
 STEP:         112
 H      0.380977      0.054831      0.059424
 H     -0.380977     -0.054831     -0.059424
           2
 STEP:         113
 H      0.381750      0.055433      0.060077
 H     -0.381750     -0.055433     -0.060077
           2
 STEP:         114
 H      0.382493      0.056031      0.060724
 H     -0.382493     -0.056031     -0.060724
           2
 STEP:         115
 H      0.383203      0.056623      0.061366
 H     -0.383203     -0.056623     -0.061366
           2
 STEP:         116
 H      0.383874      0.057209      0.062002
 H     -0.383874     -0.057209     -0.062002
           2
 STEP:         117
 H      0.384504      0.057789      0.062631
 H     -0.384504     -0.057789     -0.062631
           2
 STEP:         118
 H      0.385087      0.058362      0.063252
 H     -0.385087     -0.058362     -0.063252
           2
 STEP:         119
 H      0.385621      0.058927      0.063865
 H     -0.385621     -0.058927     -0.063865
           2
 STEP:         120
 H      0.386102      0.059485      0.064469
 H     -0.386102     -0.059485     -0.064469
           2
 STEP:         121
 H      0.386528      0.060035      0.065065
 H     -0.386528     -0.060035     -0.065065
           2
 STEP:         122
 H      0.386897      0.060576      0.065652
 H     -0.386897     -0.060576     -0.065652
           2
 STEP:         123
 H      0.387205      0.061108      0.066229
 H     -0.387205     -0.061108     -0.066229
           2
 STEP:         124
 H      0.387452      0.061631      0.066796
 H     -0.387452     -0.061631     -0.066796
           2
 STEP:         125
 H      0.387637      0.062144      0.067353
 H     -0.387637     -0.062144     -0.067353
           2
 STEP:         126
 H      0.387756      0.062647      0.067898
 H     -0.387756     -0.062647     -0.067898
           2
 STEP:         127
 H      0.387810      0.063139      0.068432
 H     -0.387810     -0.063139     -0.068432
           2
 STEP:         128
 H      0.387798      0.063621      0.068954
 H     -0.387798     -0.063621     -0.068954
           2
 STEP:         129
 H      0.387718      0.064091      0.069464
 H     -0.387718     -0.064091     -0.069464
           2
 STEP:         130
 H      0.387572      0.064550      0.069962
 H     -0.387572     -0.064550     -0.069962
           2
 STEP:         131
 H      0.387358      0.064998      0.070448
 H     -0.387358     -0.064998     -0.070448
           2
 STEP:         132
 H      0.387077      0.065435      0.070922
 H     -0.387077     -0.065435     -0.070922
           2
 STEP:         133
 H      0.386730      0.065861      0.071384
 H     -0.386730     -0.065861     -0.071384
           2
 STEP:         134
 H      0.386317      0.066275      0.071833
 H     -0.386317     -0.066275     -0.071833
           2
 STEP:         135
 H      0.385840      0.066678      0.072270
 H     -0.385840     -0.066678     -0.072270
           2
 STEP:         136
 H      0.385298      0.067069      0.072695
 H     -0.385298     -0.067069     -0.072695
           2
 STEP:         137
 H      0.384695      0.067449      0.073107
 H     -0.384695     -0.067449     -0.073107
           2
 STEP:         138
 H      0.384031      0.067818      0.073507
 H     -0.384031     -0.067818     -0.073507
           2
 STEP:         139
 H      0.383308      0.068177      0.073896
 H     -0.383308     -0.068177     -0.073896
           2
 STEP:         140
 H      0.382530      0.068526      0.074275
 H     -0.382530     -0.068526     -0.074275
           2
 STEP:         141
 H      0.381698      0.068865      0.074643
 H     -0.381698     -0.068865     -0.074643
           2
 STEP:         142
 H      0.380817      0.069196      0.075002
 H     -0.380817     -0.069196     -0.075002
           2
 STEP:         143
 H      0.379889      0.069518      0.075352
 H     -0.379889     -0.069518     -0.075352
           2
 STEP:         144
 H      0.378917      0.069833      0.075694
 H     -0.378917     -0.069833     -0.075694
           2
 STEP:         145
 H      0.377906      0.070142      0.076029
 H     -0.377906     -0.070142     -0.076029
           2
 STEP:         146
 H      0.376860      0.070444      0.076357
 H     -0.376860     -0.070444     -0.076357
           2
 STEP:         147
 H      0.375783      0.070741      0.076679
 H     -0.375783     -0.070741     -0.076679
           2
 STEP:         148
 H      0.374679      0.071034      0.076997
 H     -0.374679     -0.071034     -0.076997
           2
 STEP:         149
 H      0.373552      0.071322      0.077310
 H     -0.373552     -0.071322     -0.077310
           2
 STEP:         150
 H      0.372408      0.071607      0.077619
 H     -0.372408     -0.071607     -0.077619
           2
 STEP:         151
 H      0.371251      0.071889      0.077926
 H     -0.371251     -0.071889     -0.077926
           2
 STEP:         152
 H      0.370086      0.072170      0.078231
 H     -0.370086     -0.072170     -0.078231
           2
 STEP:         153
 H      0.368918      0.072450      0.078535
 H     -0.368918     -0.072450     -0.078535
           2
 STEP:         154
 H      0.367752      0.072730      0.078839
 H     -0.367752     -0.072730     -0.078839
           2
 STEP:         155
 H      0.366594      0.073011      0.079144
 H     -0.366594     -0.073011     -0.079144
           2
 STEP:         156
 H      0.365446      0.073294      0.079451
 H     -0.365446     -0.073294     -0.079451
           2
 STEP:         157
 H      0.364316      0.073580      0.079762
 H     -0.364316     -0.073580     -0.079762
           2
 STEP:         158
 H      0.363207      0.073871      0.080078
 H     -0.363207     -0.073871     -0.080078
           2
 STEP:         159
 H      0.362125      0.074167      0.080400
 H     -0.362125     -0.074167     -0.080400
           2
 STEP:         160
 H      0.361073      0.074469      0.080728
 H     -0.361073     -0.074469     -0.080728
           2
 STEP:         161
 H      0.360058      0.074779      0.081065
 H     -0.360058     -0.074779     -0.081065
           2
 STEP:         162
 H      0.359082      0.075098      0.081411
 H     -0.359082     -0.075098     -0.081411
           2
 STEP:         163
 H      0.358151      0.075425      0.081767
 H     -0.358151     -0.075425     -0.081767
           2
 STEP:         164
 H      0.357269      0.075763      0.082134
 H     -0.357269     -0.075763     -0.082134
           2
 STEP:         165
 H      0.356440      0.076112      0.082513
 H     -0.356440     -0.076112     -0.082513
           2
 STEP:         166
 H      0.355669      0.076474      0.082906
 H     -0.355669     -0.076474     -0.082906
           2
 STEP:         167
 H      0.354958      0.076849      0.083314
 H     -0.354958     -0.076849     -0.083314
           2
 STEP:         168
 H      0.354311      0.077238      0.083736
 H     -0.354311     -0.077238     -0.083736
           2
 STEP:         169
 H      0.353730      0.077641      0.084174
 H     -0.353730     -0.077641     -0.084174
           2
 STEP:         170
 H      0.353217      0.078059      0.084628
 H     -0.353217     -0.078059     -0.084628
           2
 STEP:         171
 H      0.352774      0.078492      0.085098
 H     -0.352774     -0.078492     -0.085098
           2
 STEP:         172
 H      0.352402      0.078940      0.085585
 H     -0.352402     -0.078940     -0.085585
           2
 STEP:         173
 H      0.352101      0.079404      0.086089
 H     -0.352101     -0.079404     -0.086089
           2
 STEP:         174
 H      0.351870      0.079885      0.086611
 H     -0.351870     -0.079885     -0.086611
           2
 STEP:         175
 H      0.351711      0.080381      0.087150
 H     -0.351711     -0.080381     -0.087150
           2
 STEP:         176
 H      0.351621      0.080893      0.087707
 H     -0.351621     -0.080893     -0.087707
           2
 STEP:         177
 H      0.351601      0.081422      0.088281
 H     -0.351601     -0.081422     -0.088281
           2
 STEP:         178
 H      0.351648      0.081966      0.088872
 H     -0.351648     -0.081966     -0.088872
           2
 STEP:         179
 H      0.351762      0.082526      0.089480
 H     -0.351762     -0.082526     -0.089480
           2
 STEP:         180
 H      0.351941      0.083101      0.090105
 H     -0.351941     -0.083101     -0.090105
           2
 STEP:         181
 H      0.352182      0.083691      0.090746
 H     -0.352182     -0.083691     -0.090746
           2
 STEP:         182
 H      0.352482      0.084296      0.091402
 H     -0.352482     -0.084296     -0.091402
           2
 STEP:         183
 H      0.352839      0.084914      0.092074
 H     -0.352839     -0.084914     -0.092074
           2
 STEP:         184
 H      0.353249      0.085545      0.092759
 H     -0.353249     -0.085545     -0.092759
           2
 STEP:         185
 H      0.353708      0.086187      0.093456
 H     -0.353708     -0.086187     -0.093456
           2
 STEP:         186
 H      0.354211      0.086839      0.094165
 H     -0.354211     -0.086839     -0.094165
           2
 STEP:         187
 H      0.354754      0.087500      0.094883
 H     -0.354754     -0.087500     -0.094883
           2
 STEP:         188
 H      0.355331      0.088170      0.095610
 H     -0.355331     -0.088170     -0.095610
           2
 STEP:         189
 H      0.355938      0.088846      0.096344
 H     -0.355938     -0.088846     -0.096344
           2
 STEP:         190
 H      0.356571      0.089528      0.097085
 H     -0.356571     -0.089528     -0.097085
           2
 STEP:         191
 H      0.357224      0.090216      0.097832
 H     -0.357224     -0.090216     -0.097832
           2
 STEP:         192
 H      0.357893      0.090907      0.098584
 H     -0.357893     -0.090907     -0.098584
           2
 STEP:         193
 H      0.358573      0.091602      0.099339
 H     -0.358573     -0.091602     -0.099339
           2
 STEP:         194
 H      0.359259      0.092299      0.100096
 H     -0.359259     -0.092299     -0.100096
           2
 STEP:         195
 H      0.359948      0.092997      0.100854
 H     -0.359948     -0.092997     -0.100854
           2
 STEP:         196
 H      0.360634      0.093695      0.101612
 H     -0.360634     -0.093695     -0.101612
           2
 STEP:         197
 H      0.361312      0.094391      0.102368
 H     -0.361312     -0.094391     -0.102368
           2
 STEP:         198
 H      0.361977      0.095083      0.103120
 H     -0.361977     -0.095083     -0.103120
           2
 STEP:         199
 H      0.362626      0.095770      0.103867
 H     -0.362626     -0.095770     -0.103867
           2
 STEP:         200
 H      0.363252      0.096452      0.104607
 H     -0.363252     -0.096452     -0.104607
