           2
 STEP:           1
 H      0.371194      0.000639      0.000693
 H     -0.371194     -0.000639     -0.000693
           2
 STEP:           2
 H      0.371509      0.001271      0.001378
 H     -0.371509     -0.001271     -0.001378
           2
 STEP:           3
 H      0.371937      0.001891      0.002049
 H     -0.371937     -0.001891     -0.002049
           2
 STEP:           4
 H      0.372464      0.002497      0.002706
 H     -0.372464     -0.002497     -0.002706
           2
 STEP:           5
 H      0.373079      0.003088      0.003347
 H     -0.373079     -0.003088     -0.003347
           2
 STEP:           6
 H      0.373769      0.003668      0.003975
 H     -0.373769     -0.003668     -0.003975
           2
 STEP:           7
 H      0.374520      0.004239      0.004594
 H     -0.374520     -0.004239     -0.004594
           2
 STEP:           8
 H      0.375321      0.004805      0.005207
 H     -0.375321     -0.004805     -0.005207
           2
 STEP:           9
 H      0.376161      0.005367      0.005816
 H     -0.376161     -0.005367     -0.005816
           2
 STEP:          10
 H      0.377032      0.005927      0.006423
 H     -0.377032     -0.005927     -0.006423
           2
 STEP:          11
 H      0.377927      0.006488      0.007030
 H     -0.377927     -0.006488     -0.007030
           2
 STEP:          12
 H      0.378840      0.007050      0.007640
 H     -0.378840     -0.007050     -0.007640
           2
 STEP:          13
 H      0.379766      0.007615      0.008252
 H     -0.379766     -0.007615     -0.008252
           2
 STEP:          14
 H      0.380703      0.008183      0.008868
 H     -0.380703     -0.008183     -0.008868
           2
 STEP:          15
 H      0.381647      0.008755      0.009487
 H     -0.381647     -0.008755     -0.009487
           2
 STEP:          16
 H      0.382595      0.009329      0.010110
 H     -0.382595     -0.009329     -0.010110
           2
 STEP:          17
 H      0.383544      0.009906      0.010735
 H     -0.383544     -0.009906     -0.010735
           2
 STEP:          18
 H      0.384490      0.010486      0.011363
 H     -0.384490     -0.010486     -0.011363
           2
 STEP:          19
 H      0.385430      0.011067      0.011993
 H     -0.385430     -0.011067     -0.011993
           2
 STEP:          20
 H      0.386360      0.011650      0.012625
 H     -0.386360     -0.011650     -0.012625
           2
 STEP:          21
 H      0.387275      0.012234      0.013258
 H     -0.387275     -0.012234     -0.013258
           2
 STEP:          22
 H      0.388171      0.012819      0.013891
 H     -0.388171     -0.012819     -0.013891
           2
 STEP:          23
 H      0.389042      0.013403      0.014524
 H     -0.389042     -0.013403     -0.014524
           2
 STEP:          24
 H      0.389883      0.013987      0.015157
 H     -0.389883     -0.013987     -0.015157
           2
 STEP:          25
 H      0.390691      0.014571      0.015789
 H     -0.390691     -0.014571     -0.015789
           2
 STEP:          26
 H      0.391459      0.015153      0.016420
 H     -0.391459     -0.015153     -0.016420
           2
 STEP:          27
 H      0.392183      0.015734      0.017050
 H     -0.392183     -0.015734     -0.017050
           2
 STEP:          28
 H      0.392859      0.016313      0.017677
 H     -0.392859     -0.016313     -0.017677
           2
 STEP:          29
 H      0.393484      0.016889      0.018302
 H     -0.393484     -0.016889     -0.018302
           2
 STEP:          30
 H      0.394052      0.017464      0.018924
 H     -0.394052     -0.017464     -0.018924
           2
 STEP:          31
 H      0.394562      0.018035      0.019544
 H     -0.394562     -0.018035     -0.019544
           2
 STEP:          32
 H      0.395009      0.018604      0.020160
 H     -0.395009     -0.018604     -0.020160
           2
 STEP:          33
 H      0.395393      0.019169      0.020773
 H     -0.395393     -0.019169     -0.020773
           2
 STEP:          34
 H      0.395709      0.019731      0.021382
 H     -0.395709     -0.019731     -0.021382
           2
 STEP:          35
 H      0.395957      0.020290      0.021987
 H     -0.395957     -0.020290     -0.021987
           2
 STEP:          36
 H      0.396134      0.020844      0.022588
 H     -0.396134     -0.020844     -0.022588
           2
 STEP:          37
 H      0.396240      0.021394      0.023184
 H     -0.396240     -0.021394     -0.023184
           2
 STEP:          38
 H      0.396274      0.021941      0.023776
 H     -0.396274     -0.021941     -0.023776
           2
 STEP:          39
 H      0.396235      0.022483      0.024364
 H     -0.396235     -0.022483     -0.024364
           2
 STEP:          40
 H      0.396123      0.023021      0.024946
 H     -0.396123     -0.023021     -0.024946
           2
 STEP:          41
 H      0.395939      0.023554      0.025524
 H     -0.395939     -0.023554     -0.025524
           2
 STEP:          42
 H      0.395682      0.024083      0.026097
 H     -0.395682     -0.024083     -0.026097
           2
 STEP:          43
 H      0.395354      0.024607      0.026666
 H     -0.395354     -0.024607     -0.026666
           2
 STEP:          44
 H      0.394956      0.025127      0.027229
 H     -0.394956     -0.025127     -0.027229
           2
 STEP:          45
 H      0.394489      0.025642      0.027788
 H     -0.394489     -0.025642     -0.027788
           2
 STEP:          46
 H      0.393956      0.026153      0.028341
 H     -0.393956     -0.026153     -0.028341
           2
 STEP:          47
 H      0.393359      0.026660      0.028890
 H     -0.393359     -0.026660     -0.028890
           2
 STEP:          48
 H      0.392700      0.027162      0.029434
 H     -0.392700     -0.027162     -0.029434
           2
 STEP:          49
 H      0.391982      0.027661      0.029974
 H     -0.391982     -0.027661     -0.029974
           2
 STEP:          50
 H      0.391209      0.028155      0.030510
 H     -0.391209     -0.028155     -0.030510
           2
 STEP:          51
 H      0.390385      0.028646      0.031042
 H     -0.390385     -0.028646     -0.031042
           2
 STEP:          52
 H      0.389514      0.029133      0.031570
 H     -0.389514     -0.029133     -0.031570
           2
 STEP:          53
 H      0.388599      0.029617      0.032095
 H     -0.388599     -0.029617     -0.032095
           2
 STEP:          54
 H      0.387646      0.030099      0.032617
 H     -0.387646     -0.030099     -0.032617
           2
 STEP:          55
 H      0.386659      0.030577      0.033136
 H     -0.386659     -0.030577     -0.033136
           2
 STEP:          56
 H      0.385643      0.031054      0.033652
 H     -0.385643     -0.031054     -0.033652
           2
 STEP:          57
 H      0.384605      0.031529      0.034167
 H     -0.384605     -0.031529     -0.034167
           2
 STEP:          58
 H      0.383549      0.032003      0.034681
 H     -0.383549     -0.032003     -0.034681
           2
 STEP:          59
 H      0.382480      0.032477      0.035194
 H     -0.382480     -0.032477     -0.035194
           2
 STEP:          60
 H      0.381406      0.032949      0.035706
 H     -0.381406     -0.032949     -0.035706
           2
 STEP:          61
 H      0.380331      0.033423      0.036219
 H     -0.380331     -0.033423     -0.036219
           2
 STEP:          62
 H      0.379262      0.033896      0.036733
 H     -0.379262     -0.033896     -0.036733
           2
 STEP:          63
 H      0.378204      0.034372      0.037248
 H     -0.378204     -0.034372     -0.037248
           2
 STEP:          64
 H      0.377164      0.034849      0.037765
 H     -0.377164     -0.034849     -0.037765
           2
 STEP:          65
 H      0.376147      0.035329      0.038285
 H     -0.376147     -0.035329     -0.038285
           2
 STEP:          66
 H      0.375159      0.035811      0.038808
 H     -0.375159     -0.035811     -0.038808
           2
 STEP:          67
 H      0.374206      0.036298      0.039335
 H     -0.374206     -0.036298     -0.039335
           2
 STEP:          68
 H      0.373292      0.036788      0.039867
 H     -0.373292     -0.036788     -0.039867
           2
 STEP:          69
 H      0.372424      0.037284      0.040404
 H     -0.372424     -0.037284     -0.040404
           2
 STEP:          70
 H      0.371606      0.037784      0.040946
 H     -0.371606     -0.037784     -0.040946
           2
 STEP:          71
 H      0.370842      0.038291      0.041495
 H     -0.370842     -0.038291     -0.041495
           2
 STEP:          72
 H      0.370137      0.038804      0.042051
 H     -0.370137     -0.038804     -0.042051
           2
 STEP:          73
 H      0.369494      0.039324      0.042615
 H     -0.369494     -0.039324     -0.042615
           2
 STEP:          74
 H      0.368917      0.039851      0.043186
 H     -0.368917     -0.039851     -0.043186
           2
 STEP:          75
 H      0.368409      0.040386      0.043766
 H     -0.368409     -0.040386     -0.043766
           2
 STEP:          76
 H      0.367972      0.040929      0.044354
 H     -0.367972     -0.040929     -0.044354
           2
 STEP:          77
 H      0.367608      0.041480      0.044951
 H     -0.367608     -0.041480     -0.044951
           2
 STEP:          78
 H      0.367318      0.042039      0.045558
 H     -0.367318     -0.042039     -0.045558
           2
 STEP:          79
 H      0.367103      0.042608      0.046174
 H     -0.367103     -0.042608     -0.046174
           2
 STEP:          80
 H      0.366964      0.043185      0.046800
 H     -0.366964     -0.043185     -0.046800
           2
 STEP:          81
 H      0.366901      0.043772      0.047436
 H     -0.366901     -0.043772     -0.047436
           2
 STEP:          82
 H      0.366911      0.044367      0.048081
 H     -0.366911     -0.044367     -0.048081
           2
 STEP:          83
 H      0.366996      0.044972      0.048736
 H     -0.366996     -0.044972     -0.048736
           2
 STEP:          84
 H      0.367152      0.045585      0.049401
 H     -0.367152     -0.045585     -0.049401
           2
 STEP:          85
 H      0.367378      0.046207      0.050075
 H     -0.367378     -0.046207     -0.050075
           2
 STEP:          86
 H      0.367670      0.046837      0.050758
 H     -0.367670     -0.046837     -0.050758
           2
 STEP:          87
 H      0.368027      0.047475      0.051450
 H     -0.368027     -0.047475     -0.051450
           2
 STEP:          88
 H      0.368443      0.048121      0.052150
 H     -0.368443     -0.048121     -0.052150
           2
 STEP:          89
 H      0.368917      0.048774      0.052859
 H     -0.368917     -0.048774     -0.052859
           2
 STEP:          90
 H      0.369442      0.049435      0.053574
 H     -0.369442     -0.049435     -0.053574
           2
 STEP:          91
 H      0.370015      0.050101      0.054296
 H     -0.370015     -0.050101     -0.054296
           2
 STEP:          92
 H      0.370632      0.050773      0.055025
 H     -0.370632     -0.050773     -0.055025
           2
 STEP:          93
 H      0.371287      0.051450      0.055759
 H     -0.371287     -0.051450     -0.055759
           2
 STEP:          94
 H      0.371974      0.052131      0.056497
 H     -0.371974     -0.052131     -0.056497
           2
 STEP:          95
 H      0.372690      0.052816      0.057240
 H     -0.372690     -0.052816     -0.057240
           2
 STEP:          96
 H      0.373427      0.053504      0.057986
 H     -0.373427     -0.053504     -0.057986
           2
 STEP:          97
 H      0.374182      0.054194      0.058734
 H     -0.374182     -0.054194     -0.058734
           2
 STEP:          98
 H      0.374947      0.054886      0.059484
 H     -0.374947     -0.054886     -0.059484
           2
 STEP:          99
 H      0.375718      0.055578      0.060234
 H     -0.375718     -0.055578     -0.060234
           2
 STEP:         100
 H      0.376489      0.056270      0.060984
 H     -0.376489     -0.056270     -0.060984
           2
 STEP:         101
 H      0.377255      0.056960      0.061733
 H     -0.377255     -0.056960     -0.061733
           2
 STEP:         102
 H      0.378009      0.057649      0.062480
 H     -0.378009     -0.057649     -0.062480
           2
 STEP:         103
 H      0.378747      0.058335      0.063224
 H     -0.378747     -0.058335     -0.063224
           2
 STEP:         104
 H      0.379464      0.059018      0.063964
 H     -0.379464     -0.059018     -0.063964
           2
 STEP:         105
 H      0.380153      0.059696      0.064699
 H     -0.380153     -0.059696     -0.064699
           2
 STEP:         106
 H      0.380811      0.060369      0.065429
 H     -0.380811     -0.060369     -0.065429
           2
 STEP:         107
 H      0.381433      0.061036      0.066153
 H     -0.381433     -0.061036     -0.066153
           2
 STEP:         108
 H      0.382013      0.061697      0.066869
 H     -0.382013     -0.061697     -0.066869
           2
 STEP:         109
 H      0.382549      0.062350      0.067577
 H     -0.382549     -0.062350     -0.067577
           2
 STEP:         110
 H      0.383035      0.062994      0.068276
 H     -0.383035     -0.062994     -0.068276
           2
 STEP:         111
 H      0.383467      0.063630      0.068966
 H     -0.383467     -0.063630     -0.068966
           2
 STEP:         112
 H      0.383844      0.064257      0.069645
 H     -0.383844     -0.064257     -0.069645
           2
 STEP:         113
 H      0.384160      0.064873      0.070313
 H     -0.384160     -0.064873     -0.070313
           2
 STEP:         114
 H      0.384414      0.065479      0.070970
 H     -0.384414     -0.065479     -0.070970
           2
 STEP:         115
 H      0.384603      0.066073      0.071615
 H     -0.384603     -0.066073     -0.071615
           2
 STEP:         116
 H      0.384724      0.066656      0.072247
 H     -0.384724     -0.066656     -0.072247
           2
 STEP:         117
 H      0.384776      0.067227      0.072867
 H     -0.384776     -0.067227     -0.072867
           2
 STEP:         118
 H      0.384756      0.067785      0.073472
 H     -0.384756     -0.067785     -0.073472
           2
 STEP:         119
 H      0.384664      0.068331      0.074064
 H     -0.384664     -0.068331     -0.074064
           2
 STEP:         120
 H      0.384499      0.068864      0.074643
 H     -0.384499     -0.068864     -0.074643
           2
 STEP:         121
 H      0.384260      0.069384      0.075206
 H     -0.384260     -0.069384     -0.075206
           2
 STEP:         122
 H      0.383946      0.069890      0.075756
 H     -0.383946     -0.069890     -0.075756
           2
 STEP:         123
 H      0.383558      0.070384      0.076292
 H     -0.383558     -0.070384     -0.076292
           2
 STEP:         124
 H      0.383097      0.070864      0.076813
 H     -0.383097     -0.070864     -0.076813
           2
 STEP:         125
 H      0.382563      0.071331      0.077320
 H     -0.382563     -0.071331     -0.077320
           2
 STEP:         126
 H      0.381958      0.071786      0.077813
 H     -0.381958     -0.071786     -0.077813
           2
 STEP:         127
 H      0.381283      0.072228      0.078293
 H     -0.381283     -0.072228     -0.078293
           2
 STEP:         128
 H      0.380542      0.072659      0.078761
 H     -0.380542     -0.072659     -0.078761
           2
 STEP:         129
 H      0.379738      0.073078      0.079215
 H     -0.379738     -0.073078     -0.079215
           2
 STEP:         130
 H      0.378874      0.073486      0.079659
 H     -0.378874     -0.073486     -0.079659
           2
 STEP:         131
 H      0.377954      0.073884      0.080091
 H     -0.377954     -0.073884     -0.080091
           2
 STEP:         132
 H      0.376984      0.074273      0.080513
 H     -0.376984     -0.074273     -0.080513
           2
 STEP:         133
 H      0.375968      0.074653      0.080926
 H     -0.375968     -0.074653     -0.080926
           2
 STEP:         134
 H      0.374912      0.075025      0.081330
 H     -0.374912     -0.075025     -0.081330
           2
 STEP:         135
 H      0.373821      0.075389      0.081726
 H     -0.373821     -0.075389     -0.081726
           2
 STEP:         136
 H      0.372701      0.075748      0.082116
 H     -0.372701     -0.075748     -0.082116
           2
 STEP:         137
 H      0.371559      0.076102      0.082500
 H     -0.371559     -0.076102     -0.082500
           2
 STEP:         138
 H      0.370399      0.076451      0.082879
 H     -0.370399     -0.076451     -0.082879
           2
 STEP:         139
 H      0.369228      0.076797      0.083255
 H     -0.369228     -0.076797     -0.083255
           2
 STEP:         140
 H      0.368052      0.077141      0.083629
 H     -0.368052     -0.077141     -0.083629
           2
 STEP:         141
 H      0.366875      0.077484      0.084001
 H     -0.366875     -0.077484     -0.084001
           2
 STEP:         142
 H      0.365704      0.077827      0.084374
 H     -0.365704     -0.077827     -0.084374
           2
 STEP:         143
 H      0.364543      0.078172      0.084749
 H     -0.364543     -0.078172     -0.084749
           2
 STEP:         144
 H      0.363397      0.078519      0.085126
 H     -0.363397     -0.078519     -0.085126
           2
 STEP:         145
 H      0.362271      0.078870      0.085508
 H     -0.362271     -0.078870     -0.085508
           2
 STEP:         146
 H      0.361169      0.079227      0.085896
 H     -0.361169     -0.079227     -0.085896
           2
 STEP:         147
 H      0.360096      0.079590      0.086291
 H     -0.360096     -0.079590     -0.086291
           2
 STEP:         148
 H      0.359056      0.079960      0.086694
 H     -0.359056     -0.079960     -0.086694
           2
 STEP:         149
 H      0.358053      0.080340      0.087106
 H     -0.358053     -0.080340     -0.087106
           2
 STEP:         150
 H      0.357092      0.080730      0.087530
 H     -0.357092     -0.080730     -0.087530
           2
 STEP:         151
 H      0.356176      0.081130      0.087966
 H     -0.356176     -0.081130     -0.087966
           2
 STEP:         152
 H      0.355310      0.081544      0.088415
 H     -0.355310     -0.081544     -0.088415
           2
 STEP:         153
 H      0.354497      0.081970      0.088879
 H     -0.354497     -0.081970     -0.088879
           2
 STEP:         154
 H      0.353741      0.082411      0.089358
 H     -0.353741     -0.082411     -0.089358
           2
 STEP:         155
 H      0.353045      0.082867      0.089854
 H     -0.353045     -0.082867     -0.089854
           2
 STEP:         156
 H      0.352412      0.083339      0.090367
 H     -0.352412     -0.083339     -0.090367
           2
 STEP:         157
 H      0.351845      0.083827      0.090897
 H     -0.351845     -0.083827     -0.090897
           2
 STEP:         158
 H      0.351345      0.084332      0.091447
 H     -0.351345     -0.084332     -0.091447
           2
 STEP:         159
 H      0.350916      0.084854      0.092014
 H     -0.350916     -0.084854     -0.092014
           2
 STEP:         160
 H      0.350557      0.085394      0.092601
 H     -0.350557     -0.085394     -0.092601
           2
 STEP:         161
 H      0.350270      0.085952      0.093208
 H     -0.350270     -0.085952     -0.093208
           2
 STEP:         162
 H      0.350054      0.086527      0.093833
 H     -0.350054     -0.086527     -0.093833
           2
 STEP:         163
 H      0.349909      0.087120      0.094478
 H     -0.349909     -0.087120     -0.094478
           2
 STEP:         164
 H      0.349834      0.087730      0.095141
 H     -0.349834     -0.087730     -0.095141
           2
 STEP:         165
 H      0.349828      0.088357      0.095822
 H     -0.349828     -0.088357     -0.095822
           2
 STEP:         166
 H      0.349889      0.089001      0.096522
 H     -0.349889     -0.089001     -0.096522
           2
 STEP:         167
 H      0.350014      0.089660      0.097239
 H     -0.350014     -0.089660     -0.097239
           2
 STEP:         168
 H      0.350201      0.090335      0.097972
 H     -0.350201     -0.090335     -0.097972
           2
 STEP:         169
 H      0.350445      0.091024      0.098721
 H     -0.350445     -0.091024     -0.098721
           2
 STEP:         170
 H      0.350745      0.091726      0.099484
 H     -0.350745     -0.091726     -0.099484
           2
 STEP:         171
 H      0.351095      0.092441      0.100261
 H     -0.351095     -0.092441     -0.100261
           2
 STEP:         172
 H      0.351491      0.093167      0.101051
 H     -0.351491     -0.093167     -0.101051
           2
 STEP:         173
 H      0.351929      0.093903      0.101851
 H     -0.351929     -0.093903     -0.101851
           2
 STEP:         174
 H      0.352403      0.094648      0.102661
 H     -0.352403     -0.094648     -0.102661
           2
 STEP:         175
 H      0.352910      0.095400      0.103479
 H     -0.352910     -0.095400     -0.103479
           2
 STEP:         176
 H      0.353443      0.096158      0.104303
 H     -0.353443     -0.096158     -0.104303
           2
 STEP:         177
 H      0.353997      0.096921      0.105132
 H     -0.353997     -0.096921     -0.105132
           2
 STEP:         178
 H      0.354567      0.097686      0.105965
 H     -0.354567     -0.097686     -0.105965
           2
 STEP:         179
 H      0.355148      0.098454      0.106800
 H     -0.355148     -0.098454     -0.106800
           2
 STEP:         180
 H      0.355735      0.099223      0.107635
 H     -0.355735     -0.099223     -0.107635
           2
 STEP:         181
 H      0.356323      0.099991      0.108471
 H     -0.356323     -0.099991     -0.108471
           2
 STEP:         182
 H      0.356906      0.100759      0.109306
 H     -0.356906     -0.100759     -0.109306
           2
 STEP:         183
 H      0.357481      0.101524      0.110138
 H     -0.357481     -0.101524     -0.110138
           2
 STEP:         184
 H      0.358042      0.102286      0.110967
 H     -0.358042     -0.102286     -0.110967
           2
 STEP:         185
 H      0.358584      0.103043      0.111790
 H     -0.358584     -0.103043     -0.111790
           2
 STEP:         186
 H      0.359104      0.103794      0.112608
 H     -0.359104     -0.103794     -0.112608
           2
 STEP:         187
 H      0.359597      0.104538      0.113417
 H     -0.359597     -0.104538     -0.113417
           2
 STEP:         188
 H      0.360057      0.105273      0.114216
 H     -0.360057     -0.105273     -0.114216
           2
 STEP:         189
 H      0.360481      0.105997      0.115004
 H     -0.360481     -0.105997     -0.115004
           2
 STEP:         190
 H      0.360863      0.106708      0.115778
 H     -0.360863     -0.106708     -0.115778
           2
 STEP:         191
 H      0.361199      0.107405      0.116537
 H     -0.361199     -0.107405     -0.116537
           2
 STEP:         192
 H      0.361484      0.108086      0.117278
 H     -0.361484     -0.108086     -0.117278
           2
 STEP:         193
 H      0.361713      0.108750      0.118001
 H     -0.361713     -0.108750     -0.118001
           2
 STEP:         194
 H      0.361882      0.109395      0.118703
 H     -0.361882     -0.109395     -0.118703
           2
 STEP:         195
 H      0.361987      0.110019      0.119383
 H     -0.361987     -0.110019     -0.119383
           2
 STEP:         196
 H      0.362025      0.110623      0.120040
 H     -0.362025     -0.110623     -0.120040
           2
 STEP:         197
 H      0.361992      0.111205      0.120674
 H     -0.361992     -0.111205     -0.120674
           2
 STEP:         198
 H      0.361888      0.111764      0.121284
 H     -0.361888     -0.111764     -0.121284
           2
 STEP:         199
 H      0.361710      0.112301      0.121869
 H     -0.361710     -0.112301     -0.121869
           2
 STEP:         200
 H      0.361457      0.112816      0.122430
 H     -0.361457     -0.112816     -0.122430
