           2
 STEP:           1
 H      0.371101      0.000383      0.000416
 H     -0.371101     -0.000383     -0.000416
           2
 STEP:           2
 H      0.371247      0.000765      0.000829
 H     -0.371247     -0.000765     -0.000829
           2
 STEP:           3
 H      0.371436      0.001145      0.001241
 H     -0.371436     -0.001145     -0.001241
           2
 STEP:           4
 H      0.371667      0.001522      0.001649
 H     -0.371667     -0.001522     -0.001649
           2
 STEP:           5
 H      0.371938      0.001897      0.002056
 H     -0.371938     -0.001897     -0.002056
           2
 STEP:           6
 H      0.372247      0.002271      0.002461
 H     -0.372247     -0.002271     -0.002461
           2
 STEP:           7
 H      0.372593      0.002644      0.002865
 H     -0.372593     -0.002644     -0.002865
           2
 STEP:           8
 H      0.372974      0.003017      0.003269
 H     -0.372974     -0.003017     -0.003269
           2
 STEP:           9
 H      0.373389      0.003389      0.003673
 H     -0.373389     -0.003389     -0.003673
           2
 STEP:          10
 H      0.373836      0.003763      0.004077
 H     -0.373836     -0.003763     -0.004077
           2
 STEP:          11
 H      0.374314      0.004137      0.004483
 H     -0.374314     -0.004137     -0.004483
           2
 STEP:          12
 H      0.374821      0.004512      0.004889
 H     -0.374821     -0.004512     -0.004889
           2
 STEP:          13
 H      0.375356      0.004887      0.005296
 H     -0.375356     -0.004887     -0.005296
           2
 STEP:          14
 H      0.375918      0.005264      0.005704
 H     -0.375918     -0.005264     -0.005704
           2
 STEP:          15
 H      0.376505      0.005642      0.006113
 H     -0.376505     -0.005642     -0.006113
           2
 STEP:          16
 H      0.377115      0.006020      0.006523
 H     -0.377115     -0.006020     -0.006523
           2
 STEP:          17
 H      0.377746      0.006399      0.006934
 H     -0.377746     -0.006399     -0.006934
           2
 STEP:          18
 H      0.378397      0.006778      0.007345
 H     -0.378397     -0.006778     -0.007345
           2
 STEP:          19
 H      0.379065      0.007158      0.007757
 H     -0.379065     -0.007158     -0.007757
           2
 STEP:          20
 H      0.379749      0.007539      0.008169
 H     -0.379749     -0.007539     -0.008169
           2
 STEP:          21
 H      0.380447      0.007919      0.008582
 H     -0.380447     -0.007919     -0.008582
           2
 STEP:          22
 H      0.381156      0.008301      0.008995
 H     -0.381156     -0.008301     -0.008995
           2
 STEP:          23
 H      0.381874      0.008682      0.009408
 H     -0.381874     -0.008682     -0.009408
           2
 STEP:          24
 H      0.382599      0.009064      0.009822
 H     -0.382599     -0.009064     -0.009822
           2
 STEP:          25
 H      0.383329      0.009445      0.010235
 H     -0.383329     -0.009445     -0.010235
           2
 STEP:          26
 H      0.384062      0.009827      0.010649
 H     -0.384062     -0.009827     -0.010649
           2
 STEP:          27
 H      0.384795      0.010209      0.011063
 H     -0.384795     -0.010209     -0.011063
           2
 STEP:          28
 H      0.385527      0.010591      0.011476
 H     -0.385527     -0.010591     -0.011476
           2
 STEP:          29
 H      0.386254      0.010972      0.011890
 H     -0.386254     -0.010972     -0.011890
           2
 STEP:          30
 H      0.386976      0.011353      0.012303
 H     -0.386976     -0.011353     -0.012303
           2
 STEP:          31
 H      0.387689      0.011734      0.012716
 H     -0.387689     -0.011734     -0.012716
           2
 STEP:          32
 H      0.388393      0.012115      0.013128
 H     -0.388393     -0.012115     -0.013128
           2
 STEP:          33
 H      0.389084      0.012495      0.013540
 H     -0.389084     -0.012495     -0.013540
           2
 STEP:          34
 H      0.389761      0.012875      0.013951
 H     -0.389761     -0.012875     -0.013951
           2
 STEP:          35
 H      0.390421      0.013254      0.014362
 H     -0.390421     -0.013254     -0.014362
           2
 STEP:          36
 H      0.391064      0.013632      0.014772
 H     -0.391064     -0.013632     -0.014772
           2
 STEP:          37
 H      0.391686      0.014010      0.015181
 H     -0.391686     -0.014010     -0.015181
           2
 STEP:          38
 H      0.392287      0.014386      0.015590
 H     -0.392287     -0.014386     -0.015590
           2
 STEP:          39
 H      0.392865      0.014762      0.015997
 H     -0.392865     -0.014762     -0.015997
           2
 STEP:          40
 H      0.393418      0.015137      0.016403
 H     -0.393418     -0.015137     -0.016403
           2
 STEP:          41
 H      0.393945      0.015511      0.016809
 H     -0.393945     -0.015511     -0.016809
           2
 STEP:          42
 H      0.394443      0.015884      0.017213
 H     -0.394443     -0.015884     -0.017213
           2
 STEP:          43
 H      0.394912      0.016255      0.017615
 H     -0.394912     -0.016255     -0.017615
           2
 STEP:          44
 H      0.395351      0.016626      0.018016
 H     -0.395351     -0.016626     -0.018016
           2
 STEP:          45
 H      0.395758      0.016995      0.018416
 H     -0.395758     -0.016995     -0.018416
           2
 STEP:          46
 H      0.396132      0.017362      0.018815
 H     -0.396132     -0.017362     -0.018815
           2
 STEP:          47
 H      0.396472      0.017728      0.019211
 H     -0.396472     -0.017728     -0.019211
           2
 STEP:          48
 H      0.396777      0.018093      0.019606
 H     -0.396777     -0.018093     -0.019606
           2
 STEP:          49
 H      0.397046      0.018456      0.020000
 H     -0.397046     -0.018456     -0.020000
           2
 STEP:          50
 H      0.397279      0.018817      0.020391
 H     -0.397279     -0.018817     -0.020391
           2
 STEP:          51
 H      0.397474      0.019176      0.020781
 H     -0.397474     -0.019176     -0.020781
           2
 STEP:          52
 H      0.397632      0.019534      0.021168
 H     -0.397632     -0.019534     -0.021168
           2
 STEP:          53
 H      0.397751      0.019890      0.021554
 H     -0.397751     -0.019890     -0.021554
           2
 STEP:          54
 H      0.397832      0.020244      0.021937
 H     -0.397832     -0.020244     -0.021937
           2
 STEP:          55
 H      0.397874      0.020596      0.022319
 H     -0.397874     -0.020596     -0.022319
           2
 STEP:          56
 H      0.397877      0.020946      0.022698
 H     -0.397877     -0.020946     -0.022698
           2
 STEP:          57
 H      0.397841      0.021294      0.023075
 H     -0.397841     -0.021294     -0.023075
           2
 STEP:          58
 H      0.397765      0.021640      0.023450
 H     -0.397765     -0.021640     -0.023450
           2
 STEP:          59
 H      0.397650      0.021984      0.023823
 H     -0.397650     -0.021984     -0.023823
           2
 STEP:          60
 H      0.397496      0.022326      0.024193
 H     -0.397496     -0.022326     -0.024193
           2
 STEP:          61
 H      0.397304      0.022665      0.024561
 H     -0.397304     -0.022665     -0.024561
           2
 STEP:          62
 H      0.397073      0.023003      0.024927
 H     -0.397073     -0.023003     -0.024927
           2
 STEP:          63
 H      0.396805      0.023338      0.025290
 H     -0.396805     -0.023338     -0.025290
           2
 STEP:          64
 H      0.396499      0.023671      0.025651
 H     -0.396499     -0.023671     -0.025651
           2
 STEP:          65
 H      0.396156      0.024002      0.026010
 H     -0.396156     -0.024002     -0.026010
           2
 STEP:          66
 H      0.395778      0.024331      0.026367
 H     -0.395778     -0.024331     -0.026367
           2
 STEP:          67
 H      0.395365      0.024658      0.026721
 H     -0.395365     -0.024658     -0.026721
           2
 STEP:          68
 H      0.394917      0.024983      0.027073
 H     -0.394917     -0.024983     -0.027073
           2
 STEP:          69
 H      0.394437      0.025306      0.027422
 H     -0.394437     -0.025306     -0.027422
           2
 STEP:          70
 H      0.393925      0.025626      0.027770
 H     -0.393925     -0.025626     -0.027770
           2
 STEP:          71
 H      0.393381      0.025945      0.028115
 H     -0.393381     -0.025945     -0.028115
           2
 STEP:          72
 H      0.392809      0.026262      0.028459
 H     -0.392809     -0.026262     -0.028459
           2
 STEP:          73
 H      0.392208      0.026577      0.028800
 H     -0.392208     -0.026577     -0.028800
           2
 STEP:          74
 H      0.391581      0.026890      0.029139
 H     -0.391581     -0.026890     -0.029139
           2
 STEP:          75
 H      0.390928      0.027202      0.029477
 H     -0.390928     -0.027202     -0.029477
           2
 STEP:          76
 H      0.390252      0.027511      0.029813
 H     -0.390252     -0.027511     -0.029813
           2
 STEP:          77
 H      0.389554      0.027820      0.030147
 H     -0.389554     -0.027820     -0.030147
           2
 STEP:          78
 H      0.388835      0.028127      0.030480
 H     -0.388835     -0.028127     -0.030480
           2
 STEP:          79
 H      0.388098      0.028432      0.030811
 H     -0.388098     -0.028432     -0.030811
           2
 STEP:          80
 H      0.387345      0.028737      0.031141
 H     -0.387345     -0.028737     -0.031141
           2
 STEP:          81
 H      0.386577      0.029040      0.031470
 H     -0.386577     -0.029040     -0.031470
           2
 STEP:          82
 H      0.385796      0.029343      0.031797
 H     -0.385796     -0.029343     -0.031797
           2
 STEP:          83
 H      0.385004      0.029644      0.032124
 H     -0.385004     -0.029644     -0.032124
           2
 STEP:          84
 H      0.384203      0.029946      0.032451
 H     -0.384203     -0.029946     -0.032451
           2
 STEP:          85
 H      0.383396      0.030246      0.032776
 H     -0.383396     -0.030246     -0.032776
           2
 STEP:          86
 H      0.382585      0.030546      0.033102
 H     -0.382585     -0.030546     -0.033102
           2
 STEP:          87
 H      0.381771      0.030846      0.033427
 H     -0.381771     -0.030846     -0.033427
           2
 STEP:          88
 H      0.380957      0.031146      0.033752
 H     -0.380957     -0.031146     -0.033752
           2
 STEP:          89
 H      0.380145      0.031447      0.034078
 H     -0.380145     -0.031447     -0.034078
           2
 STEP:          90
 H      0.379337      0.031747      0.034403
 H     -0.379337     -0.031747     -0.034403
           2
 STEP:          91
 H      0.378536      0.032049      0.034730
 H     -0.378536     -0.032049     -0.034730
           2
 STEP:          92
 H      0.377743      0.032351      0.035057
 H     -0.377743     -0.032351     -0.035057
           2
 STEP:          93
 H      0.376961      0.032654      0.035386
 H     -0.376961     -0.032654     -0.035386
           2
 STEP:          94
 H      0.376192      0.032958      0.035715
 H     -0.376192     -0.032958     -0.035715
           2
 STEP:          95
 H      0.375438      0.033263      0.036046
 H     -0.375438     -0.033263     -0.036046
           2
 STEP:          96
 H      0.374701      0.033570      0.036379
 H     -0.374701     -0.033570     -0.036379
           2
 STEP:          97
 H      0.373984      0.033879      0.036714
 H     -0.373984     -0.033879     -0.036714
           2
 STEP:          98
 H      0.373287      0.034190      0.037050
 H     -0.373287     -0.034190     -0.037050
           2
 STEP:          99
 H      0.372614      0.034503      0.037389
 H     -0.372614     -0.034503     -0.037389
           2
 STEP:         100
 H      0.371965      0.034818      0.037731
 H     -0.371965     -0.034818     -0.037731
           2
 STEP:         101
 H      0.371344      0.035136      0.038076
 H     -0.371344     -0.035136     -0.038076
           2
 STEP:         102
 H      0.370751      0.035457      0.038423
 H     -0.370751     -0.035457     -0.038423
           2
 STEP:         103
 H      0.370188      0.035781      0.038774
 H     -0.370188     -0.035781     -0.038774
           2
 STEP:         104
 H      0.369658      0.036108      0.039129
 H     -0.369658     -0.036108     -0.039129
           2
 STEP:         105
 H      0.369161      0.036438      0.039487
 H     -0.369161     -0.036438     -0.039487
           2
 STEP:         106
 H      0.368699      0.036772      0.039849
 H     -0.368699     -0.036772     -0.039849
           2
 STEP:         107
 H      0.368275      0.037109      0.040214
 H     -0.368275     -0.037109     -0.040214
           2
 STEP:         108
 H      0.367888      0.037451      0.040584
 H     -0.367888     -0.037451     -0.040584
           2
 STEP:         109
 H      0.367540      0.037796      0.040959
 H     -0.367540     -0.037796     -0.040959
           2
 STEP:         110
 H      0.367232      0.038145      0.041337
 H     -0.367232     -0.038145     -0.041337
           2
 STEP:         111
 H      0.366965      0.038499      0.041720
 H     -0.366965     -0.038499     -0.041720
           2
 STEP:         112
 H      0.366740      0.038856      0.042108
 H     -0.366740     -0.038856     -0.042108
           2
 STEP:         113
 H      0.366556      0.039218      0.042500
 H     -0.366556     -0.039218     -0.042500
           2
 STEP:         114
 H      0.366415      0.039585      0.042898
 H     -0.366415     -0.039585     -0.042898
           2
 STEP:         115
 H      0.366315      0.039956      0.043300
 H     -0.366315     -0.039956     -0.043300
           2
 STEP:         116
 H      0.366258      0.040332      0.043707
 H     -0.366258     -0.040332     -0.043707
           2
 STEP:         117
 H      0.366243      0.040712      0.044119
 H     -0.366243     -0.040712     -0.044119
           2
 STEP:         118
 H      0.366269      0.041097      0.044536
 H     -0.366269     -0.041097     -0.044536
           2
 STEP:         119
 H      0.366337      0.041486      0.044958
 H     -0.366337     -0.041486     -0.044958
           2
 STEP:         120
 H      0.366444      0.041881      0.045386
 H     -0.366444     -0.041881     -0.045386
           2
 STEP:         121
 H      0.366591      0.042279      0.045818
 H     -0.366591     -0.042279     -0.045818
           2
 STEP:         122
 H      0.366777      0.042683      0.046255
 H     -0.366777     -0.042683     -0.046255
           2
 STEP:         123
 H      0.367001      0.043091      0.046698
 H     -0.367001     -0.043091     -0.046698
           2
 STEP:         124
 H      0.367261      0.043503      0.047144
 H     -0.367261     -0.043503     -0.047144
           2
 STEP:         125
 H      0.367557      0.043920      0.047596
 H     -0.367557     -0.043920     -0.047596
           2
 STEP:         126
 H      0.367887      0.044341      0.048052
 H     -0.367887     -0.044341     -0.048052
           2
 STEP:         127
 H      0.368249      0.044765      0.048513
 H     -0.368249     -0.044765     -0.048513
           2
 STEP:         128
 H      0.368643      0.045194      0.048977
 H     -0.368643     -0.045194     -0.048977
           2
 STEP:         129
 H      0.369067      0.045626      0.049446
 H     -0.369067     -0.045626     -0.049446
           2
 STEP:         130
 H      0.369518      0.046062      0.049918
 H     -0.369518     -0.046062     -0.049918
           2
 STEP:         131
 H      0.369995      0.046501      0.050394
 H     -0.369995     -0.046501     -0.050394
           2
 STEP:         132
 H      0.370497      0.046943      0.050873
 H     -0.370497     -0.046943     -0.050873
           2
 STEP:         133
 H      0.371022      0.047388      0.051356
 H     -0.371022     -0.047388     -0.051356
           2
 STEP:         134
 H      0.371567      0.047836      0.051841
 H     -0.371567     -0.047836     -0.051841
           2
 STEP:         135
 H      0.372130      0.048286      0.052329
 H     -0.372130     -0.048286     -0.052329
           2
 STEP:         136
 H      0.372710      0.048738      0.052819
 H     -0.372710     -0.048738     -0.052819
           2
 STEP:         137
 H      0.373304      0.049192      0.053310
 H     -0.373304     -0.049192     -0.053310
           2
 STEP:         138
 H      0.373910      0.049647      0.053804
 H     -0.373910     -0.049647     -0.053804
           2
 STEP:         139
 H      0.374526      0.050103      0.054298
 H     -0.374526     -0.050103     -0.054298
           2
 STEP:         140
 H      0.375150      0.050560      0.054794
 H     -0.375150     -0.050560     -0.054794
           2
 STEP:         141
 H      0.375780      0.051018      0.055290
 H     -0.375780     -0.051018     -0.055290
           2
 STEP:         142
 H      0.376413      0.051477      0.055787
 H     -0.376413     -0.051477     -0.055787
           2
 STEP:         143
 H      0.377048      0.051935      0.056284
 H     -0.377048     -0.051935     -0.056284
           2
 STEP:         144
 H      0.377682      0.052394      0.056782
 H     -0.377682     -0.052394     -0.056782
           2
 STEP:         145
 H      0.378313      0.052852      0.057279
 H     -0.378313     -0.052852     -0.057279
           2
 STEP:         146
 H      0.378939      0.053310      0.057775
 H     -0.378939     -0.053310     -0.057775
           2
 STEP:         147
 H      0.379559      0.053768      0.058271
 H     -0.379559     -0.053768     -0.058271
           2
 STEP:         148
 H      0.380169      0.054224      0.058765
 H     -0.380169     -0.054224     -0.058765
           2
 STEP:         149
 H      0.380769      0.054679      0.059258
 H     -0.380769     -0.054679     -0.059258
           2
 STEP:         150
 H      0.381356      0.055131      0.059749
 H     -0.381356     -0.055131     -0.059749
           2
 STEP:         151
 H      0.381928      0.055582      0.060238
 H     -0.381928     -0.055582     -0.060238
           2
 STEP:         152
 H      0.382483      0.056030      0.060723
 H     -0.382483     -0.056030     -0.060723
           2
 STEP:         153
 H      0.383019      0.056475      0.061205
 H     -0.383019     -0.056475     -0.061205
           2
 STEP:         154
 H      0.383534      0.056916      0.061684
 H     -0.383534     -0.056916     -0.061684
           2
 STEP:         155
 H      0.384026      0.057354      0.062159
 H     -0.384026     -0.057354     -0.062159
           2
 STEP:         156
 H      0.384495      0.057789      0.062630
 H     -0.384495     -0.057789     -0.062630
           2
 STEP:         157
 H      0.384937      0.058219      0.063097
 H     -0.384937     -0.058219     -0.063097
           2
 STEP:         158
 H      0.385352      0.058645      0.063559
 H     -0.385352     -0.058645     -0.063559
           2
 STEP:         159
 H      0.385739      0.059067      0.064016
 H     -0.385739     -0.059067     -0.064016
           2
 STEP:         160
 H      0.386095      0.059485      0.064469
 H     -0.386095     -0.059485     -0.064469
           2
 STEP:         161
 H      0.386421      0.059898      0.064917
 H     -0.386421     -0.059898     -0.064917
           2
 STEP:         162
 H      0.386714      0.060306      0.065359
 H     -0.386714     -0.060306     -0.065359
           2
 STEP:         163
 H      0.386974      0.060709      0.065797
 H     -0.386974     -0.060709     -0.065797
           2
 STEP:         164
 H      0.387201      0.061108      0.066229
 H     -0.387201     -0.061108     -0.066229
           2
 STEP:         165
 H      0.387392      0.061501      0.066655
 H     -0.387392     -0.061501     -0.066655
           2
 STEP:         166
 H      0.387549      0.061888      0.067075
 H     -0.387549     -0.061888     -0.067075
           2
 STEP:         167
 H      0.387669      0.062270      0.067490
 H     -0.387669     -0.062270     -0.067490
           2
 STEP:         168
 H      0.387753      0.062647      0.067898
 H     -0.387753     -0.062647     -0.067898
           2
 STEP:         169
 H      0.387801      0.063017      0.068299
 H     -0.387801     -0.063017     -0.068299
           2
 STEP:         170
 H      0.387811      0.063382      0.068695
 H     -0.387811     -0.063382     -0.068695
           2
 STEP:         171
 H      0.387783      0.063740      0.069083
 H     -0.387783     -0.063740     -0.069083
           2
 STEP:         172
 H      0.387718      0.064092      0.069465
 H     -0.387718     -0.064092     -0.069465
           2
 STEP:         173
 H      0.387615      0.064437      0.069839
 H     -0.387615     -0.064437     -0.069839
           2
 STEP:         174
 H      0.387474      0.064776      0.070207
 H     -0.387474     -0.064776     -0.070207
           2
 STEP:         175
 H      0.387295      0.065109      0.070568
 H     -0.387295     -0.065109     -0.070568
           2
 STEP:         176
 H      0.387079      0.065436      0.070923
 H     -0.387079     -0.065436     -0.070923
           2
 STEP:         177
 H      0.386826      0.065756      0.071270
 H     -0.386826     -0.065756     -0.071270
           2
 STEP:         178
 H      0.386535      0.066070      0.071611
 H     -0.386535     -0.066070     -0.071611
           2
 STEP:         179
 H      0.386207      0.066378      0.071944
 H     -0.386207     -0.066378     -0.071944
           2
 STEP:         180
 H      0.385844      0.066679      0.072271
 H     -0.385844     -0.066679     -0.072271
           2
 STEP:         181
 H      0.385444      0.066974      0.072591
 H     -0.385444     -0.066974     -0.072591
           2
 STEP:         182
 H      0.385010      0.067262      0.072904
 H     -0.385010     -0.067262     -0.072904
           2
 STEP:         183
 H      0.384540      0.067544      0.073210
 H     -0.384540     -0.067544     -0.073210
           2
 STEP:         184
 H      0.384038      0.067820      0.073509
 H     -0.384038     -0.067820     -0.073509
           2
 STEP:         185
 H      0.383502      0.068091      0.073802
 H     -0.383502     -0.068091     -0.073802
           2
 STEP:         186
 H      0.382934      0.068355      0.074089
 H     -0.382934     -0.068355     -0.074089
           2
 STEP:         187
 H      0.382336      0.068614      0.074370
 H     -0.382336     -0.068614     -0.074370
           2
 STEP:         188
 H      0.381708      0.068867      0.074645
 H     -0.381708     -0.068867     -0.074645
           2
 STEP:         189
 H      0.381052      0.069116      0.074915
 H     -0.381052     -0.069116     -0.074915
           2
 STEP:         190
 H      0.380369      0.069360      0.075180
 H     -0.380369     -0.069360     -0.075180
           2
 STEP:         191
 H      0.379661      0.069600      0.075440
 H     -0.379661     -0.069600     -0.075440
           2
 STEP:         192
 H      0.378929      0.069836      0.075696
 H     -0.378929     -0.069836     -0.075696
           2
 STEP:         193
 H      0.378175      0.070068      0.075948
 H     -0.378175     -0.070068     -0.075948
           2
 STEP:         194
 H      0.377400      0.070296      0.076196
 H     -0.377400     -0.070296     -0.076196
           2
 STEP:         195
 H      0.376606      0.070521      0.076441
 H     -0.376606     -0.070521     -0.076441
           2
 STEP:         196
 H      0.375796      0.070744      0.076682
 H     -0.375796     -0.070744     -0.076682
           2
 STEP:         197
 H      0.374971      0.070963      0.076920
 H     -0.374971     -0.070963     -0.076920
           2
 STEP:         198
 H      0.374132      0.071180      0.077156
 H     -0.374132     -0.071180     -0.077156
           2
 STEP:         199
 H      0.373282      0.071396      0.077390
 H     -0.373282     -0.071396     -0.077390
           2
 STEP:         200
 H      0.372422      0.071609      0.077622
 H     -0.372422     -0.071609     -0.077622
