       3
       1
  O      5.291772108590      5.291772108590      5.291772108590
  H      4.498006292302      4.762594897731      5.291772108590
  H      6.085537924879      4.762594897731      5.291772108590
       3
       2
  O      5.291772108590      5.307968441512      5.291772108590
  H      4.494573810860      4.753887503580      5.291772108590
  H      6.088970406320      4.753887503580      5.291772108590
       3
       3
  O      5.291772108565      5.320570498787      5.291772108835
  H      4.496807053533      4.748203345687      5.291772108609
  H      6.086737163648      4.748203345686      5.291772108609
       3
       4
  O      5.291772109050      5.327033788439      5.291772090494
  H      4.506497810251      4.745693621839      5.291772107413
  H      6.077046412850      4.745693622707      5.291772109539
       3
       5
  O      5.291772108615      5.334189095946      5.291772154604
  H      4.514741456632      4.742835698462      5.291772106259
  H      6.068802766889      4.742835702119      5.291772111368
       3
       6
  O      5.291772116775      5.338517663203      5.291772158371
  H      4.519799779441      4.741137536133      5.291772104647
  H      6.063744447299      4.741137539191      5.291772112332
       3
       7
  O      5.291772315423      5.341502372844      5.291772171601
  H      4.523105904368      4.739703997883      5.291772099865
  H      6.060438310705      4.739704009831      5.291772112293
       3
       8
  O      5.291772495317      5.341242228133      5.291772087754
  H      4.523219169423      4.739679513724      5.291772093271
  H      6.060325144496      4.739679442718      5.291772111579
       3
       9
  O      5.291772458517      5.341248510214      5.291771898183
  H      4.523221160807      4.739715990176      5.291772084252
  H      6.060323298305      4.739715801061      5.291772108024
       3
      10
  O      5.291776538334      5.336778203115      5.291771610965
  H      4.523100997861      4.736017176985      5.291771872032
  H      6.060447667461      4.736013511153      5.291772065920
       3
      11
  O      5.291771321100      5.341985674817      5.291772097049
  H      4.523107565298      4.741082635127      5.291772153543
  H      6.060435420890      4.741083655684      5.291772124197
       3
      12
  O      5.291766452357      5.346998173022      5.291772489423
  H      4.523102821389      4.746050299728      5.291772435390
  H      6.060434388480      4.746056097921      5.291772190073
       3
      13
  O      5.291763057304      5.350496188358      5.291772823488
  H      4.523101375599      4.749518340895      5.291772632754
  H      6.060431827662      4.749527489004      5.291772238461
